 vasp.5.4.1 24Jun15 (build Oct 10 2016 12:42:00) complex

 executed on           IFC91_ompi date 2018.05.20  21:53:07

 INCAR:
 POTCAR:    PAW_PBE Pt 04Feb2005
 POTCAR:    PAW_PBE C 08Apr2002
 POTCAR:    PAW_PBE Pt 04Feb2005
   VRHFIN =Pt: s1d9

   TITEL  = PAW_PBE Pt 04Feb2005
   POMASS =  195.080; ZVAL   =   10.000    mass and valenz
   ENMAX  =  230.283; ENMIN  =  172.712 eV

 POTCAR:    PAW_PBE C 08Apr2002
   VRHFIN =C: s2p2

   TITEL  = PAW_PBE C 08Apr2002
   POMASS =   12.011; ZVAL   =    4.000    mass and valenz
   ENMAX  =  400.000; ENMIN  =  300.000 eV

 Optimization of the real space projectors (new method)

 maximal supplied QI-value         = 14.36
 optimisation between [QCUT,QGAM] = [ 10.20, 20.39] = [ 29.12,116.47] Ry
 Optimized for a Real-space Cutoff    1.51 Angstroem

   l    n(q)    QCUT    max X(q) W(low)/X(q) W(high)/X(q)  e(spline)
   2      8    10.197    66.195    0.45E-03    0.45E-03    0.14E-06
   2      8    10.197    64.643    0.46E-03    0.46E-03    0.14E-06
   0      9    10.197    95.520    0.15E-03    0.11E-03    0.54E-07
   0      9    10.197    63.403    0.15E-03    0.11E-03    0.52E-07
   1      9    10.197    19.961    0.13E-03    0.17E-03    0.77E-07
   1      9    10.197    13.289    0.10E-03    0.15E-03    0.67E-07
 Optimization of the real space projectors (new method)

 maximal supplied QI-value         = 25.13
 optimisation between [QCUT,QGAM] = [ 10.05, 20.36] = [ 28.30,116.06] Ry
 Optimized for a Real-space Cutoff    1.30 Angstroem

   l    n(q)    QCUT    max X(q) W(low)/X(q) W(high)/X(q)  e(spline)
   0      8    10.053   115.676    0.49E-03    0.72E-03    0.18E-06
   0      8    10.053    87.132    0.49E-03    0.71E-03    0.18E-06
   1      7    10.053     4.429    0.32E-03    0.31E-03    0.18E-06
   1      7    10.053     2.733    0.23E-03    0.19E-03    0.20E-06
  PAW_PBE Pt 04Feb2005                  :
  PAW_PBE C 08Apr2002                   :

 POSCAR: Pt  C
  positions in cartesian coordinates
 exchange correlation table for  LEXCH =        8
   RHO(1)=    0.500       N(1)  =     2000
   RHO(2)=  100.500       N(2)  =     4000

 VTST: version 3.1, (03/28/14)

 CHAIN: initializing optimizer

 OPT: Using VASP Dynamics algorithm
 CHAIN: Read ICHAIN            0

 POSCAR: Pt  C
  positions in cartesian coordinates

 ion  position               nearest neighbor table
   1  0.000  0.000  0.343-  12 2.81  16 2.81  10 2.81   6 2.81   7 2.81   8 2.81   2 2.81   3 2.81
                             4 2.81
   2  0.333  0.000  0.343-  10 2.81  11 2.81  17 2.81   3 2.81   9 2.81   1 2.81   4 2.81   5 2.81
                             8 2.81
   3  0.667  0.000  0.343-  11 2.81  18 2.81  12 2.81   2 2.81   5 2.81   9 2.81   1 2.81   6 2.81
                             7 2.81
   4  0.000  0.333  0.343-  10 2.81  13 2.81  15 2.81   7 2.81   9 2.81   2 2.81   5 2.81   6 2.81
                             1 2.81
   5  0.333  0.333  0.343-  14 2.81  13 2.81  11 2.81   8 2.81   6 2.81   3 2.81   7 2.81   2 2.81
                             4 2.81
   6  0.667  0.333  0.343-  12 2.81  14 2.81  15 2.81   5 2.81   8 2.81   9 2.81   1 2.81   3 2.81
                             4 2.81
   7  0.000  0.667  0.343-  13 2.81  18 2.81  16 2.81   4 2.81   5 2.81   9 2.81   1 2.81   3 2.81
                             8 2.81
   8  0.333  0.667  0.343-  14 2.81  16 2.81  17 2.81   5 2.81   6 2.81   9 2.81   2 2.81   7 2.81
                             1 2.81
   9  0.667  0.667  0.343-  15 2.81  17 2.81  18 2.81   8 2.81   6 2.81   4 2.81   2 2.81   3 2.81
                             7 2.81
  10  0.111  0.111  0.448-   2 2.81   4 2.81   1 2.81  11 2.81  13 2.81  15 2.81  17 2.81  16 2.81
                            12 2.81  20 2.81  19 2.81  26 2.81
  11  0.444  0.111  0.448-  27 2.78  20 2.80   5 2.81   2 2.81   3 2.81  14 2.81  10 2.81  13 2.81
                            18 2.81  12 2.81  17 2.81  21 2.81
  12  0.778  0.111  0.448-  25 2.78  19 2.80   1 2.81   6 2.81   3 2.81  15 2.81  14 2.81  16 2.81
                            18 2.81  10 2.81  11 2.81  21 2.81
  13  0.111  0.444  0.448-  22 2.78  20 2.80   7 2.81   4 2.81   5 2.81  14 2.81  10 2.81  11 2.81
                            18 2.81  15 2.81  16 2.81  23 2.81
  14  0.444  0.444  0.448-  24 2.80  23 2.80  21 2.80   5 2.81   8 2.81   6 2.81  13 2.81  11 2.81
                            16 2.81  12 2.81  17 2.81  15 2.81
  15  0.778  0.444  0.448-  22 2.78  19 2.80   9 2.81   4 2.81   6 2.81  12 2.81  10 2.81  17 2.81
                            18 2.81  13 2.81  14 2.81  24 2.81
  16  0.111  0.778  0.448-  25 2.78  26 2.80   1 2.81   8 2.81   7 2.81  17 2.81  14 2.81  12 2.81
                            18 2.81  13 2.81  10 2.81  23 2.81
  17  0.444  0.778  0.448-  27 2.78  26 2.80   9 2.81   2 2.81   8 2.81  16 2.81  10 2.81  11 2.81
                            18 2.81  14 2.81  15 2.81  24 2.81
  18  0.778  0.778  0.448-  25 2.78  27 2.78  22 2.78   7 2.81   3 2.81   9 2.81  15 2.81  16 2.81
                            17 2.81  11 2.81  12 2.81  13 2.81
  19  0.887  0.223  0.552-  21 2.80  24 2.80  12 2.80  15 2.80  31 2.80  22 2.81  25 2.81  28 2.81
                            10 2.81  33 2.83  26 2.83  20 2.83
  20  0.223  0.223  0.552-  21 2.79  23 2.80  11 2.80  13 2.80  31 2.81  27 2.81  22 2.81  29 2.81
                            10 2.81  32 2.83  26 2.83  19 2.83
  21  0.555  0.224  0.553-  23 2.79  24 2.79  20 2.79  19 2.80  14 2.80  30 2.81  11 2.81  12 2.81
                            25 2.82  27 2.82  33 2.94  32 2.94
  22  0.889  0.555  0.551-  15 2.78  13 2.78  18 2.78  34 2.80  36 2.80  19 2.81  20 2.81  25 2.81
                            27 2.81  23 2.82  24 2.82  31 2.82
  23  0.224  0.555  0.553-  24 2.79  21 2.79  20 2.80  26 2.80  14 2.80  34 2.81  13 2.81  16 2.81
                            25 2.82  22 2.82  35 2.94  32 2.94
  24  0.555  0.555  0.552-  23 2.79  21 2.79  26 2.80  19 2.80  14 2.80  36 2.81  15 2.81  17 2.81
                            27 2.82  22 2.82  35 2.94  33 2.94
  25  0.889  0.889  0.551-  18 2.78  16 2.78  12 2.78  30 2.80  34 2.80  19 2.81  26 2.81  22 2.81
                            27 2.81  28 2.82  23 2.82  21 2.82
  26  0.223  0.887  0.552-  24 2.80  23 2.80  16 2.80  17 2.80  27 2.81  29 2.81  25 2.81  28 2.81
                            10 2.81  35 2.83  19 2.83  20 2.83
  27  0.555  0.889  0.551-  17 2.78  11 2.78  18 2.78  30 2.80  36 2.80  26 2.81  20 2.81  25 2.81
                            22 2.81  24 2.82  21 2.82  29 2.82
  28  0.999  0.999  0.657-  35 2.69  33 2.70  30 2.80  34 2.80  26 2.81  19 2.81  25 2.82  31 2.82
                            29 2.82
  29  0.334  0.999  0.657-  35 2.69  32 2.70  30 2.80  36 2.80  26 2.81  20 2.81  27 2.82  31 2.82
                            28 2.82
  30  0.669  0.995  0.656-  36 2.75  34 2.75  28 2.80  29 2.80  27 2.80  25 2.80  21 2.81  32 2.84
                            33 2.84
  31  1.000  0.334  0.656-  33 2.69  32 2.69  34 2.80  36 2.80  19 2.80  20 2.81  29 2.82  22 2.82
                            28 2.82
  32  0.324  0.324  0.663-  37 1.90  31 2.69  29 2.70  20 2.83  30 2.84  34 2.84  21 2.94  23 2.94
                            33 3.04  35 3.04
  33  0.685  0.324  0.663-  37 1.90  31 2.69  28 2.70  19 2.83  36 2.84  30 2.84  21 2.94  24 2.94
                            35 3.04  32 3.04
  34  0.996  0.668  0.656-  36 2.75  30 2.75  28 2.80  22 2.80  31 2.80  25 2.80  23 2.81  32 2.84
                            35 2.84
  35  0.324  0.685  0.662-  37 1.90  29 2.69  28 2.69  26 2.83  36 2.84  34 2.84  23 2.94  24 2.94
                            33 3.04  32 3.04
  36  0.669  0.668  0.656-  34 2.75  30 2.75  29 2.80  22 2.80  31 2.80  27 2.80  24 2.81  33 2.84
                            35 2.84
  37  0.444  0.444  0.696-  32 1.90  33 1.90  35 1.90

  LATTYP: Found a hexagonal cell.
 ALAT       =     8.4216417639
 C/A-ratio  =     2.5976219743

  Lattice vectors:

 A1 = (   4.2108208820,  -7.2933557091,   0.0000000000)
 A2 = (  -8.4216417639,   0.0000000000,   0.0000000000)
 A3 = (   0.0000000000,   0.0000000000, -21.8762417060)

Analysis of symmetry for initial positions (statically):
 Subroutine PRICEL returns:
 Original cell was already a primitive cell.

 Routine SETGRP: Setting up the symmetry group for a
 hexagonal supercell.

 Subroutine GETGRP returns: Found  1 space group operations
 (whereof  1 operations were pure point group operations)
 out of a pool of 24 trial point group operations.

The static configuration has the point symmetry C_1 .

Analysis of symmetry for dynamics (positions and initial velocities):
 Subroutine PRICEL returns:
 Original cell was already a primitive cell.

[...]

The dynamic configuration has the point symmetry C_1 .

Analysis of constrained symmetry for selective dynamics:
 Subroutine PRICEL returns:
 Original cell was already a primitive cell.

 Routine SETGRP: Setting up the symmetry group for a
 hexagonal supercell.

 Subroutine GETGRP returns: Found  1 space group operations
 (whereof  1 operations were pure point group operations)
 out of a pool of 24 trial point group operations.

The constrained configuration has the point symmetry C_1 .

 KPOINTS: KPOINTS created by Atomic Simulation Env

Automatic generation of k-mesh.
Space group operators:
 irot       det(A)        alpha          n_x          n_y          n_z        tau_x        tau_y        tau_z
    1     1.000000     0.000000     1.000000     0.000000     0.000000     0.000000     0.000000     0.000000

 Subroutine IBZKPT returns following result:

 Found     54 irreducible k-points:

 Following reciprocal coordinates:
            Coordinates               Weight
  0.083333  0.083333  0.000000     16.000000
  0.000000  0.083333  0.000000     16.000000
 -0.083333  0.000000  0.000000     16.000000
  0.250000  0.083333  0.000000     16.000000
  0.166667  0.250000  0.000000     16.000000
 -0.083333  0.166667  0.000000     16.000000
  0.166667 -0.083333  0.000000     16.000000
 -0.083333 -0.250000  0.000000     16.000000
 -0.250000 -0.166667  0.000000     16.000000
  0.416667  0.083333  0.000000     16.000000
  0.333333  0.416667  0.000000     16.000000
 -0.083333  0.333333  0.000000     16.000000
  0.333333 -0.083333  0.000000     16.000000
 -0.083333 -0.416667  0.000000     16.000000
 -0.416667 -0.333333  0.000000     16.000000
 -0.416667  0.083333  0.000000     16.000000
  0.500000 -0.416667  0.000000     16.000000
 -0.083333  0.500000  0.000000     16.000000
  0.500000 -0.083333  0.000000     16.000000
 -0.083333  0.416667  0.000000     16.000000
  0.416667  0.500000  0.000000     16.000000
 -0.250000  0.083333  0.000000     16.000000
 -0.333333 -0.250000  0.000000     16.000000
 -0.083333 -0.333333  0.000000     16.000000
 -0.333333 -0.083333  0.000000     16.000000
 -0.083333  0.250000  0.000000     16.000000
  0.250000  0.333333  0.000000     16.000000
 -0.083333  0.083333  0.000000     16.000000
 -0.166667 -0.083333  0.000000     16.000000
 -0.083333 -0.166667  0.000000     16.000000
  0.250000  0.250000  0.000000     16.000000
  0.000000  0.250000  0.000000     16.000000
 -0.250000  0.000000  0.000000     16.000000
  0.416667  0.250000  0.000000     16.000000
[...]
  the test charge radii are     1.2059  0.6991
  (the norm of the test charge is              1.0000)
       1 -72.4060       2 -72.4061       3 -72.4141       4 -72.4061       5 -72.4153
       6 -72.4152       7 -72.4142       8 -72.4153       9 -72.4143      10 -72.7622
      11 -72.8617      12 -72.8616      13 -72.8617      14 -72.8737      15 -72.8621
      16 -72.8615      17 -72.8622      18 -72.9003      19 -72.8584      20 -72.8580
      21 -72.7580      22 -72.8728      23 -72.7584      24 -72.7591      25 -72.8722
      26 -72.8584      27 -72.8727      28 -72.4896      29 -72.4905      30 -72.3802
      31 -72.4912      32 -72.9898      33 -72.9918      34 -72.3803      35 -72.9929
      36 -72.3804      37 -54.8268

 E-fermi :   1.1720     XC(G=0):  -6.4236     alpha+bet : -6.7875

 k-point     1 :       0.0833    0.0833    0.0000
  band No.  band energies     occupation
      1     -11.0666      2.00000
      2      -8.0172      2.00000
      3      -6.6748      2.00000
      4      -5.9449      2.00000
      5      -5.8960      2.00000
      6      -5.7002      2.00000
      7      -5.5936      2.00000
      8      -5.5733      2.00000
      9      -5.5665      2.00000
     10      -5.5108      2.00000
     11      -5.4462      2.00000
     12      -5.3766      2.00000
     13      -5.3668      2.00000
     14      -5.0315      2.00000
     15      -5.0017      2.00000
     16      -4.9970      2.00000
     17      -4.9440      2.00000
     18      -4.9044      2.00000
     19      -4.8925      2.00000
     20      -4.5518      2.00000
     21      -4.5329      2.00000
     22      -4.4965      2.00000
     23      -4.4879      2.00000
     24      -4.4045      2.00000
     25      -4.3590      2.00000
     26      -4.3126      2.00000
     27      -4.2679      2.00000
     28      -4.2641      2.00000
     29      -4.1971      2.00000
     30      -4.1904      2.00000
     31      -4.1710      2.00000
     32      -4.1312      2.00000
     33      -4.0982      2.00000
     34      -4.0750      2.00000
     35      -4.0747      2.00000
     36      -4.0552      2.00000
     37      -4.0310      2.00000
     38      -3.9935      2.00000
     39      -3.9595      2.00000
     40      -3.8604      2.00000
     41      -3.8445      2.00000
     42      -3.5928      2.00000
     43      -3.5536      2.00000
     44      -3.5455      2.00000
     45      -3.4789      2.00000
     46      -3.4350      2.00000
     47      -3.4103      2.00000
     48      -3.3980      2.00000
     49      -3.3908      2.00000
     50      -3.3038      2.00000
     51      -3.2758      2.00000
     52      -3.1760      2.00000
     53      -3.1491      2.00000
     54      -3.1268      2.00000
     55      -3.1258      2.00000
     56      -3.0534      2.00000
     57      -3.0522      2.00000
     58      -2.8713      2.00000
     59      -2.6582      2.00000
     60      -2.6489      2.00000
[...]
    206       3.3628      0.00000
    207       4.1907      0.00000
    208       4.2695      0.00000
    209       4.3740      0.00000
    210       4.6653      0.00000
    211       4.7872      0.00000
    212       4.7931      0.00000
    213       5.5355      0.00000
    214       5.6431      0.00000
    215       5.9803      0.00000
    216       6.1097      0.00000
    217       6.3753      0.00000
    218       6.5289      0.00000
    219       6.6311      0.00000
    220       6.6718      0.00000

[...]

 k-point    54 :      -0.4167    0.1667    0.0000
  band No.  band energies     occupation
      1     -11.0337      2.00000
      2      -7.1703      2.00000
      3      -7.0752      2.00000
      4      -6.3952      2.00000
      5      -6.0703      2.00000
      6      -5.7954      2.00000
      7      -5.5432      2.00000
      8      -5.4593      2.00000
      9      -5.2514      2.00000
     10      -5.1438      2.00000
     11      -5.0897      2.00000
     12      -5.0641      2.00000
     13      -4.9112      2.00000
     14      -4.8921      2.00000
     15      -4.8090      2.00000
     16      -4.7720      2.00000
     17      -4.7497      2.00000
     18      -4.7396      2.00000
     19      -4.6909      2.00000
     20      -4.6822      2.00000
     21      -4.6626      2.00000
     22      -4.6347      2.00000
     23      -4.5930      2.00000
     24      -4.5009      2.00000
     25      -4.4795      2.00000
     26      -4.4229      2.00000
     27      -4.4220      2.00000
     28      -4.4143      2.00000
     29      -4.3627      2.00000
     30      -4.2375      2.00000
     31      -4.1770      2.00000
     32      -4.1369      2.00000
     33      -4.1202      2.00000
     34      -4.1168      2.00000
     35      -4.0303      2.00000
     36      -3.9700      2.00000
     37      -3.9438      2.00000
     38      -3.9101      2.00000
     39      -3.8696      2.00000
     40      -3.8647      2.00000
     41      -3.7751      2.00000
     42      -3.6489      2.00000
     43      -3.6034      2.00000
     44      -3.5861      2.00000
     45      -3.5158      2.00000
     46      -3.4876      2.00000
     47      -3.4697      2.00000
     48      -3.4041      2.00000
     49      -3.3217      2.00000
     50      -3.2959      2.00000
     51      -3.2566      2.00000
     52      -3.2099      2.00000
     53      -3.1818      2.00000
     54      -3.1323      2.00000
     55      -3.0945      2.00000
     56      -3.0835      2.00000
     57      -3.0578      2.00000
     58      -3.0157      2.00000
     59      -2.9825      2.00000
     60      -2.9566      2.00000
[...]
    206       3.7515      0.00000
    207       3.9399      0.00000
    208       3.9812      0.00000
    209       4.0974      0.00000
    210       4.2480      0.00000
    211       4.3496      0.00000
    212       4.3734      0.00000
    213       4.6171      0.00000
    214       4.7211      0.00000
    215       4.8553      0.00000
    216       5.0223      0.00000
    217       5.3544      0.00000
    218       5.7798      0.00000
    219       5.8326      0.00000
    220       5.9473      0.00000

 soft charge-density along one line, spin component           1
         0         1         2         3         4         5         6         7         8         9
 total charge-density along one line

------------------------ aborting loop because EDIFF is reached ----------------------------------------

  FORCE on cell =-STRESS in cart. coord.  units (eV):
  Direction    XX          YY          ZZ          XY          YZ          ZX
  Alpha Z   932.59998   932.59998   932.59998
  Ewald  113352.45017113350.49477************     0.82973     0.83285     0.52237
  Hartree119597.47598119596.85945************     0.28133     0.19110     0.11657
  E(xc)   -1606.88327 -1606.89295 -1617.07230     0.00400     0.00501     0.00358
  Local  ************************244517.90178    -0.98696    -0.81633    -0.49801
  n-local   167.87948   167.76019   142.20205     0.05866     0.06380     0.04101
  augment  1877.27326  1877.40355  1931.37946    -0.05548    -0.08910    -0.06179
  Kinetic  5241.04227  5241.29730  5390.39052    -0.10511    -0.16362    -0.11190
  Fock        0.00000     0.00000     0.00000     0.00000     0.00000     0.00000
  Total     -28.61123   -28.66065    -0.18312     0.02616     0.02372     0.01183
  in kB     -34.11538   -34.17432    -0.21835     0.03120     0.02829     0.01411

 VOLUME and BASIS-vectors are now :
  energy-cutoff  :      400.00
  volume of cell :     1343.68
      direct lattice vectors                 reciprocal lattice vectors
     8.421641764  0.000000000  0.000000000     0.118741693 -0.068555548  0.000000000
     4.210820882  7.293355709  0.000000000     0.000000000  0.137111097  0.000000000
     0.000000000  0.000000000 21.876241706     0.000000000  0.000000000  0.045711691

  length of vectors
     8.421641764  8.421641764 21.876241706     0.137111097  0.137111097  0.045711691

 FORCES acting on ions
    electron-ion (+dipol)            ewald-force                    non-local-force                 convergence-correction
   -.328E+00 -.191E+00 0.232E+04   0.299E+00 0.176E+00 -.232E+04   0.330E-01 0.186E-01 -.115E+01   0.582E-04 -.113E-03 -.836E-03
   0.334E+00 -.202E+00 0.232E+04   -.304E+00 0.187E+00 -.232E+04   -.337E-01 0.186E-01 -.115E+01   -.247E-03 -.193E-03 -.776E-03
   -.332E-02 -.532E+00 0.232E+04   0.427E-02 0.544E+00 -.232E+04   -.509E-03 -.845E-02 -.127E+01   0.189E-03 -.274E-04 -.807E-03
   -.602E-02 0.392E+00 0.232E+04   0.700E-02 -.357E+00 -.232E+04   -.466E-03 -.387E-01 -.115E+01   -.164E-03 -.309E-03 -.912E-03
   -.175E+00 -.989E-01 0.232E+04   0.175E+00 0.100E+00 -.232E+04   -.498E-02 -.328E-02 -.125E+01   0.126E-03 -.457E-04 -.857E-03
   0.184E+00 -.907E-01 0.232E+04   -.182E+00 0.924E-01 -.232E+04   0.410E-02 -.352E-02 -.125E+01   0.376E-04 -.170E-03 -.877E-03
   -.462E+00 0.264E+00 0.232E+04   0.472E+00 -.269E+00 -.232E+04   -.719E-02 0.328E-02 -.127E+01   0.198E-03 0.369E-03 -.837E-03
   0.119E-01 0.207E+00 0.232E+04   -.107E-01 -.207E+00 -.232E+04   -.660E-03 0.502E-02 -.125E+01   -.258E-04 0.323E-03 -.770E-03
   0.453E+00 0.263E+00 0.232E+04   -.461E+00 -.268E+00 -.232E+04   0.635E-02 0.341E-02 -.127E+01   -.172E-03 0.166E-03 -.802E-03
   -.883E-02 -.213E-01 0.795E+03   0.924E-02 0.223E-01 -.794E+03   -.751E-03 -.108E-02 -.246E+00   -.330E-04 -.364E-03 -.222E-02
   -.232E+00 -.361E+01 0.798E+03   0.952E-01 0.358E+01 -.798E+03   0.954E-01 0.559E-01 -.282E+00   -.128E-04 -.213E-03 -.201E-02
   0.285E+00 -.351E+01 0.798E+03   -.145E+00 0.348E+01 -.798E+03   -.102E+00 0.550E-01 -.282E+00   0.460E-04 -.148E-03 -.228E-02
   -.325E+01 0.165E+01 0.798E+03   0.316E+01 -.175E+01 -.798E+03   0.984E-01 0.507E-01 -.282E+00   0.110E-03 0.540E-04 -.195E-02
   0.855E-01 0.719E-01 0.796E+03   -.850E-01 -.707E-01 -.795E+03   -.325E-02 -.367E-02 -.281E+00   0.644E-04 0.167E-03 -.199E-02
   0.323E+01 0.165E+01 0.799E+03   -.314E+01 -.176E+01 -.798E+03   -.104E+00 0.507E-01 -.285E+00   -.175E-03 0.558E-04 -.205E-02
   -.292E+01 0.201E+01 0.798E+03   0.296E+01 -.188E+01 -.798E+03   -.233E-03 -.118E+00 -.282E+00   0.192E-03 0.155E-03 -.224E-02
   0.302E+01 0.199E+01 0.799E+03   -.307E+01 -.186E+01 -.798E+03   -.654E-02 -.117E+00 -.285E+00   -.149E-03 0.102E-03 -.207E-02
   -.394E-01 -.211E-01 0.804E+03   0.417E-01 0.234E-01 -.803E+03   -.326E-02 -.402E-02 -.445E+00   -.426E-04 0.190E-03 -.209E-02
   -.845E+00 0.621E+00 -.732E+03   0.548E+00 -.450E+00 0.732E+03   0.296E+00 -.171E+00 0.175E-01   -.127E-04 0.316E-04 -.954E-03
   0.772E+00 0.463E+00 -.732E+03   -.476E+00 -.293E+00 0.732E+03   -.295E+00 -.170E+00 0.156E-01   0.101E-03 -.105E-03 -.926E-03
   0.462E-01 -.745E+01 -.753E+03   -.475E-01 0.759E+01 0.753E+03   0.366E-02 -.146E+00 0.665E+00   -.927E-04 0.823E-04 -.950E-03
   -.349E-01 0.319E+01 -.720E+03   0.353E-01 -.325E+01 0.719E+03   -.169E-02 0.559E-01 0.511E+00   -.458E-04 0.863E-04 -.844E-03
   -.646E+01 0.386E+01 -.753E+03   0.659E+01 -.393E+01 0.753E+03   -.126E+00 0.747E-01 0.662E+00   0.165E-03 0.175E-04 -.919E-03
   0.644E+01 0.385E+01 -.753E+03   -.657E+01 -.392E+01 0.752E+03   0.130E+00 0.728E-01 0.663E+00   -.118E-03 0.151E-03 -.902E-03
   -.277E+01 -.170E+01 -.720E+03   0.282E+01 0.173E+01 0.719E+03   -.488E-01 -.282E-01 0.507E+00   -.197E-04 -.687E-04 -.107E-02
   0.158E+00 -.114E+01 -.732E+03   -.158E+00 0.801E+00 0.732E+03   -.157E-02 0.342E+00 0.189E-01   0.163E-03 -.162E-03 -.109E-02
   0.262E+01 -.171E+01 -.720E+03   -.267E+01 0.173E+01 0.719E+03   0.500E-01 -.294E-01 0.510E+00   -.142E-03 -.283E-04 -.101E-02
   0.167E+01 0.917E+00 -.226E+04   -.169E+01 -.928E+00 0.226E+04   0.218E-01 0.136E-01 0.100E+01   0.473E-04 -.481E-04 0.195E-03
   -.169E+01 0.959E+00 -.226E+04   0.170E+01 -.968E+00 0.226E+04   -.149E-01 0.121E-01 0.100E+01   0.564E-04 -.109E-03 0.105E-03
   -.141E+00 0.235E+01 -.225E+04   0.137E+00 -.295E+01 0.225E+04   0.446E-02 0.601E+00 0.133E+01   -.109E-03 -.265E-04 0.160E-03
   0.959E-01 -.222E+01 -.226E+04   -.953E-01 0.222E+01 0.226E+04   -.566E-03 -.670E-02 0.100E+01   -.361E-06 0.964E-04 0.207E-03
   0.556E+02 0.321E+02 -.226E+04   -.547E+02 -.316E+02 0.226E+04   -.859E+00 -.495E+00 -.152E+01   0.252E-04 0.424E-04 0.146E-03
   -.556E+02 0.322E+02 -.226E+04   0.547E+02 -.317E+02 0.226E+04   0.862E+00 -.497E+00 -.152E+01   -.338E-04 0.154E-03 0.210E-03
   0.209E+01 -.122E+01 -.225E+04   -.261E+01 0.152E+01 0.225E+04   0.521E+00 -.296E+00 0.134E+01   -.974E-05 -.756E-04 0.189E-03
   0.678E-01 -.640E+02 -.226E+04   -.702E-01 0.631E+02 0.226E+04   0.247E-02 0.995E+00 -.152E+01   0.925E-04 -.608E-04 0.132E-03
   -.211E+01 -.108E+01 -.225E+04   0.263E+01 0.138E+01 0.225E+04   -.522E+00 -.299E+00 0.133E+01   -.856E-04 -.482E-05 0.146E-03
   -.763E-01 -.103E+00 -.110E+04   0.737E-01 0.103E+00 0.110E+04   0.125E-02 0.350E-03 -.515E+01   0.401E-04 0.430E-04 0.123E-03
   -.791E-03 0.276E-03 0.128E+02   0.361E-15 0.604E-13 0.455E-12   -.697E-02 -.770E-02 -.128E+02   0.202E-04 0.169E-04 -.334E-01

 POSITION                                       TOTAL-FORCE (eV/Angst)
      0.00000      0.00000      7.50000         0.004308      0.002821     -0.052122
      2.80721      0.00000      7.50000        -0.003212      0.002832     -0.052025
      5.61443      0.00000      7.50000         0.000837      0.003771     -0.066831
      1.40361      2.43112      7.50000         0.000552     -0.003782     -0.052032
      4.21082      2.43112      7.50000        -0.003907     -0.001835     -0.051817
      7.01803      2.43112      7.50000         0.005382     -0.001777     -0.052283
      2.80721      4.86224      7.50000         0.003281     -0.000509     -0.066646
      5.61443      4.86224      7.50000         0.000766      0.006137     -0.052188
      8.42164      4.86224      7.50000        -0.001923     -0.000760     -0.066501
      1.40361      0.81037      9.79208        -0.000169     -0.000321     -0.040338
      4.21082      0.81037      9.79208        -0.040764      0.034772      0.064439
      7.01803      0.81037      9.79208         0.037779      0.033163      0.064192
      2.80721      3.24149      9.79208         0.010928     -0.054057      0.063784
      5.61443      3.24149      9.79208        -0.002515     -0.002076      0.249331
      8.42164      3.24149      9.79208        -0.013195     -0.053867      0.061234
      4.21082      5.67261      9.79208         0.048875      0.014834      0.063575
      7.01803      5.67261      9.79208        -0.052633      0.014712      0.060381
      9.82525      5.67261      9.79208        -0.000872     -0.001369     -0.018547
      8.40821      1.62601     12.07797         0.000043     -0.000371     -0.004432
      2.81833      1.62612     12.07864         0.000530      0.000286     -0.005552
      5.61311      1.63029     12.08665         0.002429     -0.000843     -0.006773
      9.82391      4.04830     12.05018        -0.001084     -0.001072     -0.000965
      4.21913      4.04475     12.08676        -0.001035      0.000633     -0.008078
      7.00688      4.04492     12.08617         0.002292     -0.000647     -0.007460
     11.22880      6.48190     12.05072        -0.000025     -0.000155     -0.004296
      5.61321      6.46792     12.07794        -0.001286      0.000715     -0.003833
      8.41866      6.48206     12.05023         0.000513     -0.000660     -0.002915
     12.62263      7.28611     14.36248         0.001750      0.002506     -0.004206
      7.02212      7.28614     14.36219        -0.002569      0.003664     -0.002792
      9.82255      7.25798     14.34723         0.000469     -0.000811     -0.004227
      9.82306      2.43365     14.36115         0.000289     -0.004007     -0.002370
      4.09204      2.36052     14.49550        -0.003762     -0.001286     -0.003196
      7.13248      2.36152     14.49306         0.009472     -0.003588     -0.000927
     11.19843      4.87445     14.34694        -0.001161      0.000522     -0.003122
      5.61245      4.99426     14.49252         0.000364      0.010157      0.000604
      8.44809      4.87522     14.34681         0.000352      0.001070     -0.005271
      5.61251      3.23920     15.21932        -0.001097      0.001201      0.014204
    total drift:                               -0.007740     -0.007409     -0.030500

  FREE ENERGIE OF THE ION-ELECTRON SYSTEM (eV)
  free  energy   TOTEN  =      -217.90356144 eV

  energy  without entropy=     -215.84738469  energy(sigma->0) =     -216.87547306

 stress matrix after NEB project (eV)
    -28.61123      0.02616      0.01183
      0.02616    -28.66065      0.02372
      0.01183      0.02372     -0.18312
  FORCES: max atom, RMS     0.014297    0.004800
  FORCE total and by dimension    0.029199    0.014204
  Stress total and by dimension   40.497802   28.660655