 vasp.5.4.1 24Jun15 (build Oct 10 2016 12:42:00) complex

 executed on           IFC91_ompi date 2018.07.02  11:07:21

 INCAR:
 POTCAR:    PAW_PBE Pt 04Feb2005
 POTCAR:    PAW_PBE C 08Apr2002
 POTCAR:    PAW_PBE H 15Jun2001
 POTCAR:    PAW_PBE Pt 04Feb2005
   VRHFIN =Pt: s1d9

   TITEL  = PAW_PBE Pt 04Feb2005
   POMASS =  195.080; ZVAL   =   10.000    mass and valenz
   ENMAX  =  230.283; ENMIN  =  172.712 eV

 POTCAR:    PAW_PBE C 08Apr2002
   VRHFIN =C: s2p2

   TITEL  = PAW_PBE C 08Apr2002
   POMASS =   12.011; ZVAL   =    4.000    mass and valenz
   ENMAX  =  400.000; ENMIN  =  300.000 eV

 POTCAR:    PAW_PBE H 15Jun2001
   VRHFIN =H: ultrasoft test

   TITEL  = PAW_PBE H 15Jun2001
   POMASS =    1.000; ZVAL   =    1.000    mass and valenz
   ENMAX  =  250.000; ENMIN  =  200.000 eV

 Optimization of the real space projectors (new method)

 maximal supplied QI-value         = 14.36
 optimisation between [QCUT,QGAM] = [ 10.20, 20.39] = [ 29.12,116.47] Ry
 Optimized for a Real-space Cutoff    1.51 Angstroem

   l    n(q)    QCUT    max X(q) W(low)/X(q) W(high)/X(q)  e(spline)
   2      8    10.197    66.195    0.45E-03    0.45E-03    0.14E-06
   2      8    10.197    64.643    0.46E-03    0.46E-03    0.14E-06
   0      9    10.197    95.520    0.15E-03    0.11E-03    0.54E-07
   0      9    10.197    63.403    0.15E-03    0.11E-03    0.52E-07
   1      9    10.197    19.961    0.13E-03    0.17E-03    0.77E-07
   1      9    10.197    13.289    0.10E-03    0.15E-03    0.67E-07
 Optimization of the real space projectors (new method)

[...]

   l    n(q)    QCUT    max X(q) W(low)/X(q) W(high)/X(q)  e(spline)
   0      8    10.053   115.676    0.49E-03    0.72E-03    0.18E-06
   0      8    10.053    87.132    0.49E-03    0.71E-03    0.18E-06
   1      7    10.053     4.429    0.32E-03    0.31E-03    0.18E-06
   1      7    10.053     2.733    0.23E-03    0.19E-03    0.20E-06
 Optimization of the real space projectors (new method)

 maximal supplied QI-value         = 34.20
 optimisation between [QCUT,QGAM] = [  9.92, 20.18] = [ 27.55,114.04] Ry
 Optimized for a Real-space Cutoff    1.26 Angstroem

   l    n(q)    QCUT    max X(q) W(low)/X(q) W(high)/X(q)  e(spline)
   0      8     9.919    19.460    0.50E-03    0.23E-03    0.29E-06
   0      8     9.919    12.209    0.48E-03    0.23E-03    0.28E-06
   1      7     9.919     4.655    0.17E-03    0.75E-03    0.30E-06
  PAW_PBE Pt 04Feb2005                  :
  PAW_PBE C 08Apr2002                   :
  PAW_PBE H 15Jun2001                   :

 POSCAR: Pt  C  H
  positions in cartesian coordinates
 exchange correlation table for  LEXCH =        8
   RHO(1)=    0.500       N(1)  =     2000
   RHO(2)=  100.500       N(2)  =     4000

 VTST: version 3.1, (03/28/14)

 CHAIN: initializing optimizer

 OPT: Using VASP Dynamics algorithm
 CHAIN: Read ICHAIN            0

 POSCAR: Pt  C  H
  positions in cartesian coordinates

 ion  position               nearest neighbor table
   1  0.000  0.000  0.343-  12 2.81  16 2.81  10 2.81   6 2.81   7 2.81   8 2.81   2 2.81   3 2.81
                             4 2.81
   2  0.333  0.000  0.343-  10 2.81  11 2.81  17 2.81   3 2.81   9 2.81   1 2.81   4 2.81   5 2.81
                             8 2.81
   3  0.667  0.000  0.343-  11 2.81  18 2.81  12 2.81   2 2.81   5 2.81   9 2.81   1 2.81   6 2.81
                             7 2.81
   4  0.000  0.333  0.343-  10 2.81  13 2.81  15 2.81   7 2.81   9 2.81   2 2.81   5 2.81   6 2.81
                             1 2.81
   5  0.333  0.333  0.343-  14 2.81  13 2.81  11 2.81   8 2.81   6 2.81   3 2.81   7 2.81   2 2.81
                             4 2.81
   6  0.667  0.333  0.343-  12 2.81  14 2.81  15 2.81   5 2.81   8 2.81   9 2.81   1 2.81   3 2.81
                             4 2.81
   7  0.000  0.667  0.343-  13 2.81  18 2.81  16 2.81   4 2.81   5 2.81   9 2.81   1 2.81   3 2.81
                             8 2.81
   8  0.333  0.667  0.343-  14 2.81  16 2.81  17 2.81   5 2.81   6 2.81   9 2.81   2 2.81   7 2.81
                             1 2.81
   9  0.667  0.667  0.343-  15 2.81  17 2.81  18 2.81   8 2.81   6 2.81   4 2.81   2 2.81   3 2.81
                             7 2.81
  10  0.111  0.111  0.448-  26 2.75   4 2.81   2 2.81   1 2.81  13 2.81  11 2.81  17 2.81  15 2.81
                            12 2.81  16 2.81  20 2.82  19 2.83
  11  0.444  0.111  0.448-  27 2.79  21 2.80   5 2.81   2 2.81   3 2.81  14 2.81  10 2.81  13 2.81
                            18 2.81  12 2.81  17 2.81  20 2.82
  12  0.778  0.111  0.448-  19 2.80  25 2.80   1 2.81   6 2.81   3 2.81  15 2.81  14 2.81  16 2.81
                            18 2.81  10 2.81  11 2.81  21 2.81
  13  0.111  0.444  0.448-  23 2.80  22 2.80  20 2.80   4 2.81   5 2.81   7 2.81  10 2.81  11 2.81
                            14 2.81  15 2.81  16 2.81  18 2.81
  14  0.444  0.444  0.448-  24 2.79  21 2.80   5 2.81   6 2.81   8 2.81  11 2.81  13 2.81  12 2.81
                            16 2.81  15 2.81  17 2.81  23 2.82
  15  0.778  0.444  0.448-  22 2.78  19 2.80  24 2.80   4 2.81   6 2.81   9 2.81  12 2.81  10 2.81
                            18 2.81  13 2.81  14 2.81  17 2.81
  16  0.111  0.778  0.448-  26 2.75   8 2.81   1 2.81   7 2.81  17 2.81  14 2.81  10 2.81  12 2.81
                            18 2.81  13 2.81  23 2.82  25 2.83
  17  0.444  0.778  0.448-  26 2.77  27 2.80  24 2.80   2 2.81   8 2.81   9 2.81  16 2.81  10 2.81
                            18 2.81  14 2.81  15 2.81  11 2.81
  18  0.778  0.778  0.448-  22 2.78  25 2.79  27 2.80   7 2.81   3 2.81   9 2.81  15 2.81  16 2.81
                            17 2.81  11 2.81  12 2.81  13 2.81
  19  0.884  0.224  0.552-  24 2.78  31 2.79  21 2.79  12 2.80  15 2.80  28 2.80  22 2.80  26 2.82
                            25 2.82  10 2.83  20 2.83  33 2.85
  20  0.220  0.225  0.553-  23 2.76  29 2.79  21 2.79  13 2.80  22 2.80  31 2.81  27 2.82  10 2.82
                            11 2.82  26 2.83  19 2.83  32 2.88
  21  0.554  0.223  0.552-  23 2.79  19 2.79  20 2.79  25 2.79  11 2.80  27 2.80  24 2.80  14 2.80
                            12 2.81  33 2.90  30 2.91  32 2.95
  22  0.886  0.556  0.551-  15 2.78  18 2.78  13 2.80  25 2.80  20 2.80  24 2.80  23 2.80  19 2.80
                            27 2.80  34 2.81  31 2.82  36 2.82
  23  0.221  0.553  0.553-  20 2.76  35 2.79  21 2.79  13 2.80  22 2.80  34 2.81  24 2.82  14 2.82
                            16 2.82  26 2.83  25 2.83  32 2.89
  24  0.554  0.555  0.552-  19 2.78  14 2.79  17 2.80  21 2.80  15 2.80  22 2.80  36 2.80  35 2.81
                            23 2.82  27 2.82  26 2.82  33 2.88
  25  0.884  0.890  0.552-  27 2.78  18 2.79  21 2.79  28 2.79  34 2.80  22 2.80  12 2.80  19 2.82
                            26 2.82  16 2.83  23 2.83  30 2.85
  26  0.219  0.890  0.550-  16 2.75  10 2.75  17 2.77  29 2.79  35 2.79  19 2.82  25 2.82  27 2.82
                            24 2.82  20 2.83  23 2.83  28 2.83
  27  0.554  0.890  0.552-  25 2.78  11 2.79  17 2.80  21 2.80  18 2.80  22 2.80  29 2.81  36 2.81
                            20 2.82  26 2.82  24 2.82  30 2.87
  28  0.998  0.999  0.656-  35 2.74  29 2.75  25 2.79  30 2.80  19 2.80  33 2.80  34 2.81  31 2.81
                            26 2.83
  29  0.325  0.998  0.655-  35 2.72  28 2.75  26 2.79  20 2.79  27 2.81  31 2.81  36 2.82  32 2.85
                            30 2.88
  30  0.668  0.994  0.661-  37 2.01  34 2.75  36 2.78  28 2.80  25 2.85  33 2.86  27 2.87  29 2.88
                            32 2.89  21 2.91
  31  0.995  0.335  0.657-  33 2.76  32 2.78  19 2.79  36 2.80  34 2.80  20 2.81  29 2.81  28 2.81
                            22 2.82
  32  0.324  0.337  0.663-  38 2.18  37 2.18  34 2.78  31 2.78  29 2.85  35 2.86  20 2.88  33 2.89
                            23 2.89  30 2.89  21 2.95
  33  0.668  0.334  0.661-  38 2.01  31 2.76  36 2.78  28 2.80  19 2.85  30 2.86  35 2.88  24 2.88
                            32 2.89  21 2.90
  34  0.995  0.667  0.657-  30 2.75  32 2.78  25 2.80  36 2.80  31 2.80  28 2.81  23 2.81  22 2.81
                            35 2.82
  35  0.326  0.675  0.655-  29 2.72  28 2.74  23 2.79  26 2.79  36 2.81  24 2.81  34 2.82  32 2.86
                            33 2.88
  36  0.663  0.667  0.657-  30 2.78  33 2.78  31 2.80  34 2.80  24 2.80  35 2.81  27 2.81  29 2.82
                            22 2.82
  37  0.521  0.154  0.731-  39 1.09  38 1.40  30 2.01  32 2.18
  38  0.522  0.320  0.731-  40 1.09  37 1.40  33 2.01  32 2.18
  39  0.480  0.100  0.770-  37 1.09
  40  0.481  0.416  0.770-  38 1.09

  LATTYP: Found a hexagonal cell.
 ALAT       =     8.4216417639
 C/A-ratio  =     2.5976219743

  Lattice vectors:

 A1 = (   4.2108208820,  -7.2933557091,   0.0000000000)
 A2 = (  -8.4216417639,   0.0000000000,   0.0000000000)
 A3 = (   0.0000000000,   0.0000000000, -21.8762417060)

Analysis of symmetry for initial positions (statically):
 Subroutine PRICEL returns:
 Original cell was already a primitive cell.

 Routine SETGRP: Setting up the symmetry group for a
 hexagonal supercell.

 Subroutine GETGRP returns: Found  1 space group operations
 (whereof  1 operations were pure point group operations)
 out of a pool of 24 trial point group operations.

The static configuration has the point symmetry C_1 .

Analysis of symmetry for dynamics (positions and initial velocities):
 Subroutine PRICEL returns:
 Original cell was already a primitive cell.

[...]

The dynamic configuration has the point symmetry C_1 .

Analysis of constrained symmetry for selective dynamics:
 Subroutine PRICEL returns:
 Original cell was already a primitive cell.

 Routine SETGRP: Setting up the symmetry group for a
 hexagonal supercell.

 Subroutine GETGRP returns: Found  1 space group operations
 (whereof  1 operations were pure point group operations)
 out of a pool of 24 trial point group operations.

The constrained configuration has the point symmetry C_1 .

 KPOINTS: KPOINTS created by Atomic Simulation Env

Automatic generation of k-mesh.
Space group operators:
 irot       det(A)        alpha          n_x          n_y          n_z        tau_x        tau_y        tau_z
    1     1.000000     0.000000     1.000000     0.000000     0.000000     0.000000     0.000000     0.000000

 Subroutine IBZKPT returns following result:

 Found     54 irreducible k-points:

 Following reciprocal coordinates:
            Coordinates               Weight
  0.083333  0.083333  0.000000     16.000000
  0.000000  0.083333  0.000000     16.000000
 -0.083333  0.000000  0.000000     16.000000
  0.250000  0.083333  0.000000     16.000000
  0.166667  0.250000  0.000000     16.000000
 -0.083333  0.166667  0.000000     16.000000
  0.166667 -0.083333  0.000000     16.000000
 -0.083333 -0.250000  0.000000     16.000000
 -0.250000 -0.166667  0.000000     16.000000
  0.416667  0.083333  0.000000     16.000000
  0.333333  0.416667  0.000000     16.000000
 -0.083333  0.333333  0.000000     16.000000
  0.333333 -0.083333  0.000000     16.000000
 -0.083333 -0.416667  0.000000     16.000000
 -0.416667 -0.333333  0.000000     16.000000
 -0.416667  0.083333  0.000000     16.000000
  0.500000 -0.416667  0.000000     16.000000
[...]
      36 -72.1143      37 -54.0184      38 -54.0172      39 -36.6037      40 -36.6055

 E-fermi :   1.4760     XC(G=0):  -6.5550     alpha+bet : -6.9032

 k-point     1 :       0.0833    0.0833    0.0000
  band No.  band energies     occupation
      1     -13.8159      2.00000
      2      -8.5887      2.00000
      3      -7.7663      2.00000
      4      -6.7219      2.00000
      5      -6.3647      2.00000
      6      -5.4887      2.00000
      7      -5.4311      2.00000
      8      -5.3999      2.00000
      9      -5.3460      2.00000
     10      -5.2641      2.00000
     11      -5.2274      2.00000
     12      -5.1878      2.00000
     13      -5.1526      2.00000
     14      -4.9037      2.00000
     15      -4.7832      2.00000
     16      -4.7218      2.00000
     17      -4.6969      2.00000
     18      -4.6781      2.00000
     19      -4.6718      2.00000
     20      -4.4434      2.00000
     21      -4.4029      2.00000
     22      -4.3522      2.00000
     23      -4.2395      2.00000
     24      -4.2149      2.00000
     25      -4.2047      2.00000
     26      -4.1296      2.00000
     27      -4.0887      2.00000
     28      -4.0441      2.00000
     29      -3.9920      2.00000
     30      -3.9310      2.00000
     31      -3.9195      2.00000
     32      -3.8801      2.00000
     33      -3.8459      2.00000
     34      -3.8157      2.00000
     35      -3.8020      2.00000
     36      -3.7811      2.00000
     37      -3.7570      2.00000
     38      -3.7439      2.00000
     39      -3.7416      2.00000
     40      -3.7091      2.00000
     41      -3.6774      2.00000
     42      -3.6098      2.00000
     43      -3.5485      2.00000
     44      -3.5290      2.00000
     45      -3.3118      2.00000
     46      -3.2270      2.00000
     47      -3.1494      2.00000
     48      -3.1226      2.00000
     49      -3.1083      2.00000
     50      -3.1008      2.00000
     51      -3.0724      2.00000
     52      -3.0317      2.00000
     53      -2.9962      2.00000
     54      -2.9566      2.00000
     55      -2.8990      2.00000
     56      -2.8286      2.00000
     57      -2.8091      2.00000
     58      -2.7853      2.00000
     59      -2.6549      2.00000
     60      -2.5501      2.00000
[...]
    211       4.6530      0.00000
    212       4.8696      0.00000
    213       5.0470      0.00000
    214       5.2026      0.00000
    215       5.3624      0.00000
    216       5.7543      0.00000
    217       5.8587      0.00000
    218       5.9064      0.00000
    219       6.2336      0.00000
    220       6.2909      0.00000
    221       6.5109      0.00000
    222       6.6591      0.00000
    223       6.7381      0.00000
    224       6.7878      0.00000
    225       6.9664      0.00000

[...]

 k-point    54 :      -0.4167    0.1667    0.0000
  band No.  band energies     occupation
      1     -13.8140      2.00000
      2      -8.5871      2.00000
      3      -6.8726      2.00000
      4      -6.8341      2.00000
      5      -6.5738      2.00000
      6      -6.0392      2.00000
      7      -5.6718      2.00000
      8      -5.5923      2.00000
      9      -5.0217      2.00000
     10      -4.9496      2.00000
     11      -4.8979      2.00000
     12      -4.8168      2.00000
     13      -4.7900      2.00000
     14      -4.6695      2.00000
     15      -4.6097      2.00000
     16      -4.5827      2.00000
     17      -4.4948      2.00000
     18      -4.4812      2.00000
     19      -4.4386      2.00000
     20      -4.4305      2.00000
     21      -4.4144      2.00000
     22      -4.3872      2.00000
     23      -4.3609      2.00000
     24      -4.3328      2.00000
     25      -4.2161      2.00000
     26      -4.1936      2.00000
     27      -4.1528      2.00000
     28      -4.1391      2.00000
     29      -4.1305      2.00000
     30      -4.0834      2.00000
     31      -4.0387      2.00000
     32      -3.9587      2.00000
     33      -3.8627      2.00000
     34      -3.8318      2.00000
     35      -3.7787      2.00000
     36      -3.7523      2.00000
     37      -3.7148      2.00000
     38      -3.7108      2.00000
     39      -3.6393      2.00000
     40      -3.6268      2.00000
     41      -3.5805      2.00000
     42      -3.5533      2.00000
     43      -3.4288      2.00000
     44      -3.3372      2.00000
     45      -3.3103      2.00000
     46      -3.2763      2.00000
     47      -3.2286      2.00000
     48      -3.1883      2.00000
     49      -3.1203      2.00000
     50      -3.0635      2.00000
     51      -3.0554      2.00000
     52      -2.9694      2.00000
     53      -2.9568      2.00000
     54      -2.9388      2.00000
     55      -2.8865      2.00000
     56      -2.8235      2.00000
     57      -2.7931      2.00000
     58      -2.7618      2.00000
     59      -2.7314      2.00000
     60      -2.6969      2.00000
[...]
    211       4.3319      0.00000
    212       4.4193      0.00000
    213       4.5265      0.00000
    214       4.6482      0.00000
    215       4.7296      0.00000
    216       4.8213      0.00000
    217       4.9772      0.00000
    218       5.1196      0.00000
    219       5.2927      0.00000
    220       5.7828      0.00000
    221       5.9253      0.00000
    222       6.0766      0.00000
    223       6.2134      0.00000
    224       6.2943      0.00000
    225       6.5370      0.00000

 soft charge-density along one line, spin component           1
         0         1         2         3         4         5         6         7         8         9
 total charge-density along one line

------------------------ aborting loop because EDIFF is reached ----------------------------------------

  FORCE on cell =-STRESS in cart. coord.  units (eV):
  Direction    XX          YY          ZZ          XY          YZ          ZX
  Alpha Z   954.96920   954.96920   954.96920
  Ewald  112456.10051112527.59966************    68.67096    25.93875   -37.87419
  Hartree118982.72082119014.88339************    29.96555     8.51474   -12.71506
  E(xc)   -1628.10610 -1627.92090 -1637.30199     0.19605     0.06564    -0.08195
  Local  ************************242704.90567   -96.46012   -32.86493    49.23118
  n-local   151.55344   148.96177   137.55166    -1.99579     1.19610    -1.57081
  augment  1879.76111  1881.39256  1925.47418     1.02641    -0.53470     0.37000
  Kinetic  5331.92273  5331.68616  5454.28115    -1.06196    -2.05866     2.53562
  Fock        0.00000     0.00000     0.00000     0.00000     0.00000     0.00000
  Total     -33.65795   -33.30073    -0.03752     0.34110     0.25694    -0.10522
  in kB     -40.13298   -39.70704    -0.04473     0.40673     0.30637    -0.12546

 VOLUME and BASIS-vectors are now :
  energy-cutoff  :      400.00
  volume of cell :     1343.68
      direct lattice vectors                 reciprocal lattice vectors
     8.421641764  0.000000000  0.000000000     0.118741693 -0.068555548  0.000000000
     4.210820882  7.293355709  0.000000000     0.000000000  0.137111097  0.000000000
     0.000000000  0.000000000 21.876241706     0.000000000  0.000000000  0.045711691

  length of vectors
     8.421641764  8.421641764 21.876241706     0.137111097  0.137111097  0.045711691

 FORCES acting on ions
    electron-ion (+dipol)            ewald-force                    non-local-force                 convergence-correction
   0.104E+00 -.398E-01 0.233E+04   -.211E+00 0.104E+00 -.233E+04   0.664E-01 -.398E-01 -.111E+01   0.169E-03 -.326E-03 -.181E-02
   0.285E-01 -.348E+00 0.233E+04   0.905E-01 0.342E+00 -.233E+04   -.676E-01 -.108E-01 -.112E+01   -.447E-03 -.111E-03 -.183E-02
   -.756E-01 -.156E+00 0.233E+04   0.116E+00 0.138E+00 -.233E+04   -.230E-01 0.142E-01 -.123E+01   0.279E-03 -.749E-04 -.193E-02
   -.126E+00 0.756E-01 0.233E+04   0.135E+00 -.104E+00 -.233E+04   -.295E-02 0.134E-01 -.128E+01   0.467E-04 -.192E-03 -.180E-02
   0.463E-01 -.212E-01 0.233E+04   -.593E-01 0.337E-01 -.233E+04   0.241E-01 -.165E-01 -.121E+01   -.496E-04 0.332E-03 -.171E-02
   0.115E+00 0.167E+00 0.233E+04   -.765E-01 -.187E+00 -.233E+04   -.249E-01 0.946E-02 -.123E+01   0.280E-05 -.170E-04 -.192E-02
   -.124E+00 0.584E-01 0.233E+04   0.158E+00 -.484E-01 -.233E+04   -.149E-01 -.562E-02 -.127E+01   0.450E-03 0.134E-03 -.168E-02
   0.341E+00 0.144E+00 0.233E+04   -.273E+00 -.237E+00 -.233E+04   -.268E-01 0.593E-01 -.112E+01   -.326E-03 0.254E-03 -.170E-02
   -.120E+00 0.489E-01 0.233E+04   0.114E+00 -.399E-01 -.233E+04   -.720E-02 0.199E-02 -.125E+01   -.123E-03 0.178E-06 -.190E-02
   -.134E+00 -.511E+01 0.830E+03   0.155E+00 0.497E+01 -.829E+03   0.115E-01 0.164E+00 -.332E+00   -.290E-04 -.138E-03 -.386E-02
   0.100E+01 -.140E+01 0.830E+03   -.108E+01 0.136E+01 -.830E+03   -.416E-02 0.557E-01 -.253E+00   -.171E-03 0.239E-03 -.354E-02
   -.379E+00 0.456E+00 0.830E+03   0.526E+00 -.533E+00 -.829E+03   -.100E+00 0.405E-01 -.213E+00   0.200E-03 -.209E-03 -.374E-02
   -.114E+01 0.557E+00 0.831E+03   0.119E+01 -.584E+00 -.831E+03   -.272E-01 0.563E-02 -.290E+00   0.267E-03 0.213E-03 -.354E-02
   0.204E+01 -.226E-01 0.830E+03   -.204E+01 0.118E+00 -.830E+03   -.621E-01 -.473E-01 -.256E+00   -.379E-03 0.350E-03 -.361E-02
   0.471E-01 0.196E+01 0.833E+03   -.567E-01 -.201E+01 -.832E+03   -.313E-01 -.308E-02 -.359E+00   0.112E-03 -.336E-04 -.365E-02
   0.448E+01 0.292E+01 0.829E+03   -.435E+01 -.286E+01 -.829E+03   -.146E+00 -.111E+00 -.334E+00   0.275E-04 -.229E-03 -.388E-02
   -.192E+01 0.105E+01 0.833E+03   0.182E+01 -.981E+00 -.832E+03   0.752E-01 -.516E-01 -.346E+00   -.426E-03 -.262E-04 -.380E-02
   -.145E+01 -.108E+01 0.832E+03   0.150E+01 0.112E+01 -.832E+03   -.328E-01 0.107E-01 -.355E+00   0.397E-03 -.167E-03 -.361E-02
   -.563E+01 0.382E+01 -.689E+03   0.511E+01 -.347E+01 0.689E+03   0.521E+00 -.342E+00 -.148E+00   -.664E-06 0.170E-04 -.202E-02
   0.363E+01 0.279E+01 -.693E+03   -.324E+01 -.251E+01 0.693E+03   -.389E+00 -.289E+00 -.390E-01   0.188E-03 0.309E-03 -.209E-02
   0.205E+01 -.969E+00 -.688E+03   -.199E+01 0.930E+00 0.687E+03   -.720E-01 0.438E-01 0.104E+01   -.189E-03 0.183E-03 -.185E-02
   -.143E+01 0.584E+00 -.679E+03   0.143E+01 -.583E+00 0.679E+03   -.314E-02 0.551E-02 0.552E+00   0.351E-03 0.294E-05 -.207E-02
   -.563E+00 -.498E+01 -.694E+03   0.515E+00 0.449E+01 0.694E+03   0.413E-01 0.487E+00 -.444E-01   -.117E-03 -.784E-04 -.222E-02
   0.164E+01 -.233E+01 -.683E+03   -.162E+01 0.204E+01 0.683E+03   -.287E-01 0.295E+00 0.341E+00   -.230E-03 -.641E-04 -.202E-02
   -.596E+01 0.298E+01 -.689E+03   0.539E+01 -.271E+01 0.689E+03   0.555E+00 -.258E+00 -.145E+00   0.490E-04 -.247E-03 -.209E-02
   0.229E+01 -.952E+00 -.655E+03   -.233E+01 0.978E+00 0.654E+03   0.332E-01 -.269E-01 0.880E+00   -.165E-03 -.172E-03 -.235E-02
   0.251E+01 -.272E-02 -.685E+03   -.226E+01 0.127E+00 0.684E+03   -.263E+00 -.126E+00 0.331E+00   0.108E-03 0.603E-04 -.195E-02
   -.208E+02 0.111E+02 -.221E+04   0.211E+02 -.114E+02 0.221E+04   -.373E+00 0.258E+00 0.106E+01   -.213E-03 -.185E-04 -.249E-03
   0.255E+02 0.129E+02 -.218E+04   -.267E+02 -.136E+02 0.218E+04   0.124E+01 0.712E+00 0.148E+01   0.236E-03 0.124E-03 -.225E-03
   -.265E+02 0.107E+03 -.212E+04   0.260E+02 -.106E+03 0.212E+04   0.524E+00 -.317E+00 -.339E+01   -.251E-04 0.910E-04 -.186E-03
   0.940E+00 -.388E+01 -.222E+04   -.105E+01 0.391E+01 0.221E+04   0.113E+00 -.440E-01 0.110E+01   0.144E-03 0.155E-03 -.266E-03
   0.109E+03 -.641E+02 -.212E+04   -.110E+03 0.648E+02 0.212E+04   0.118E+01 -.675E+00 -.139E+01   0.778E-04 0.662E-04 -.257E-03
   -.106E+03 -.312E+02 -.212E+04   0.106E+03 0.315E+02 0.212E+04   0.574E+00 -.234E+00 -.337E+01   -.213E-03 0.124E-04 -.153E-03
   0.360E+01 0.170E+01 -.222E+04   -.369E+01 -.163E+01 0.222E+04   0.849E-01 -.622E-01 0.109E+01   0.377E-04 -.120E-03 -.362E-03
   0.217E+01 -.273E+02 -.218E+04   -.214E+01 0.287E+02 0.218E+04   -.487E-01 -.142E+01 0.147E+01   -.120E-03 -.316E-03 -.300E-03
   -.579E+01 0.343E+01 -.221E+04   0.573E+01 -.342E+01 0.221E+04   0.587E-01 -.484E-02 0.100E+01   0.824E-04 -.146E-04 -.194E-03
   0.405E+02 0.795E+02 -.108E+04   -.399E+02 -.831E+02 0.108E+04   -.669E+00 0.362E+01 -.340E+01   -.198E-04 0.230E-04 0.372E-03
   -.491E+02 -.745E+02 -.108E+04   0.525E+02 0.757E+02 0.108E+04   -.346E+01 -.122E+01 -.340E+01   -.309E-04 0.213E-04 0.365E-03
   0.298E+02 0.245E+02 -.282E+03   -.329E+02 -.266E+02 0.286E+03   0.305E+01 0.215E+01 -.439E+01   -.153E-05 0.275E-05 0.128E-03
   -.653E+01 -.380E+02 -.282E+03   0.690E+01 0.417E+02 0.286E+03   -.364E+00 -.372E+01 -.440E+01   -.452E-05 0.201E-05 0.126E-03
   -.197E+01 0.107E+01 0.273E+02   -.755E-13 -.135E-12 -.108E-11   0.191E+01 -.107E+01 -.274E+02   -.560E-04 0.397E-04 -.694E-01

 POSITION                                       TOTAL-FORCE (eV/Angst)
      0.00000      0.00000      7.50000        -0.038863      0.024348     -0.087968
      2.80721      0.00000      7.50000         0.052399     -0.017186     -0.084714
      5.61443      0.00000      7.50000         0.019389     -0.003873     -0.078469
      1.40361      2.43112      7.50000         0.007425     -0.015544     -0.040548
      4.21082      2.43112      7.50000         0.012585     -0.003675     -0.052830
      7.01803      2.43112      7.50000         0.014948     -0.010190     -0.078728
      2.80721      4.86224      7.50000         0.020516      0.004467     -0.041539
      5.61443      4.86224      7.50000         0.042137     -0.032836     -0.084748
      8.42164      4.86224      7.50000        -0.012553      0.010826     -0.063118
      1.40361      0.81037      9.79208         0.034241      0.026932     -0.067778
      4.21082      0.81037      9.79208        -0.079447      0.020729      0.132102
      7.01803      0.81037      9.79208         0.048614     -0.035996      0.164669
      2.80721      3.24149      9.79208         0.030464     -0.021323      0.165356
      5.61443      3.24149      9.79208        -0.064793      0.048818      0.127351
      8.42164      3.24149      9.79208        -0.039294     -0.049245      0.134866
      4.21082      5.67261      9.79208        -0.011279     -0.054378     -0.064557
      7.01803      5.67261      9.79208        -0.027083      0.014768     -0.080230
      9.82525      5.67261      9.79208         0.013072      0.051681      0.142646
      8.39189      1.63682     12.08551        -0.000278      0.006735     -0.006964
      2.80494      1.64376     12.09017         0.002640     -0.003865     -0.007675
      5.59909      1.62323     12.07880        -0.005173      0.004406      0.001198
      9.80556      4.05785     12.05729         0.001440      0.006764     -0.005661
      4.18694      4.03242     12.09123        -0.006016      0.002832     -0.012344
      7.00305      4.04619     12.06916        -0.003537      0.007604      0.000758
     11.19512      6.48977     12.08539        -0.008427      0.007287     -0.009044
      5.59071      6.49192     12.02273        -0.002113     -0.000846     -0.004772
      8.41254      6.49153     12.07175        -0.006357     -0.001479     -0.009992
     12.61501      7.28742     14.35665        -0.007586      0.012169      0.009502
      6.93959      7.27741     14.33070         0.005170     -0.010230      0.002879
      9.81479      7.24968     14.46092        -0.003707      0.005098     -0.006775
      9.78723      2.44269     14.36631         0.005171     -0.007496      0.000431
      4.14637      2.45448     14.51160        -0.000834     -0.000687      0.000612
      7.03286      2.43718     14.45901        -0.000147      0.009668      0.011700
     11.19226      4.86788     14.36876         0.001052      0.003624     -0.010030
      5.58519      4.92171     14.32966        -0.010635     -0.006581      0.007933
      8.39040      4.86525     14.36255         0.002830      0.002590      0.008281
      5.03822      1.12445     15.99732        -0.000285      0.001927      0.000333
      5.74123      2.33649     15.99770        -0.004066      0.006163     -0.009083
      4.46012      0.72660     16.83764         0.010795     -0.005942     -0.008060
      5.80158      3.03501     16.83803         0.007585      0.001938      0.005009
    total drift:                               -0.057933      0.003809     -0.091836

  FREE ENERGIE OF THE ION-ELECTRON SYSTEM (eV)
  free  energy   TOTEN  =      -234.60368375 eV

  energy  without entropy=     -232.51680918  energy(sigma->0) =     -233.56024646

 stress matrix after NEB project (eV)
    -33.65795      0.34110     -0.10522
      0.34110    -33.30073      0.25694
     -0.10522      0.25694     -0.03752
  FORCES: max atom, RMS     0.017202    0.008130
  FORCE total and by dimension    0.051418    0.012344
  Stress total and by dimension   47.351713   33.657951