 vasp.5.4.1 24Jun15 (build Oct 10 2016 12:42:00) complex

 executed on           IFC91_ompi date 2018.06.07  21:00:32

 INCAR:
 POTCAR:    PAW_PBE Pt 04Feb2005
 POTCAR:    PAW_PBE H 15Jun2001
 POTCAR:    PAW_PBE Pt 04Feb2005
   VRHFIN =Pt: s1d9

   TITEL  = PAW_PBE Pt 04Feb2005
   POMASS =  195.080; ZVAL   =   10.000    mass and valenz
   ENMAX  =  230.283; ENMIN  =  172.712 eV

 POTCAR:    PAW_PBE H 15Jun2001
   VRHFIN =H: ultrasoft test

   TITEL  = PAW_PBE H 15Jun2001
   POMASS =    1.000; ZVAL   =    1.000    mass and valenz
   ENMAX  =  250.000; ENMIN  =  200.000 eV

 Optimization of the real space projectors (new method)

 maximal supplied QI-value         = 14.36
 optimisation between [QCUT,QGAM] = [ 10.20, 20.39] = [ 29.12,116.47] Ry
 Optimized for a Real-space Cutoff    1.51 Angstroem

   l    n(q)    QCUT    max X(q) W(low)/X(q) W(high)/X(q)  e(spline)
   2      8    10.197    66.195    0.45E-03    0.45E-03    0.14E-06
   2      8    10.197    64.643    0.46E-03    0.46E-03    0.14E-06
   0      9    10.197    95.520    0.15E-03    0.11E-03    0.54E-07
   0      9    10.197    63.403    0.15E-03    0.11E-03    0.52E-07
   1      9    10.197    19.961    0.13E-03    0.17E-03    0.77E-07
   1      9    10.197    13.289    0.10E-03    0.15E-03    0.67E-07
 Optimization of the real space projectors (new method)

 maximal supplied QI-value         = 34.20
 optimisation between [QCUT,QGAM] = [  9.92, 20.18] = [ 27.55,114.04] Ry
 Optimized for a Real-space Cutoff    1.26 Angstroem

   l    n(q)    QCUT    max X(q) W(low)/X(q) W(high)/X(q)  e(spline)
   0      8     9.919    19.460    0.50E-03    0.23E-03    0.29E-06
   0      8     9.919    12.209    0.48E-03    0.23E-03    0.28E-06
   1      7     9.919     4.655    0.17E-03    0.75E-03    0.30E-06
  PAW_PBE Pt 04Feb2005                  :
  PAW_PBE H 15Jun2001                   :

 POSCAR: Pt  H
  positions in cartesian coordinates
 exchange correlation table for  LEXCH =        8
   RHO(1)=    0.500       N(1)  =     2000
   RHO(2)=  100.500       N(2)  =     4000

 VTST: version 3.1, (03/28/14)

 CHAIN: initializing optimizer

 OPT: Using VASP Dynamics algorithm
 CHAIN: Read ICHAIN            0

 POSCAR: Pt  H
  positions in cartesian coordinates

 ion  position               nearest neighbor table
   1  0.000  0.000  0.343-  12 2.81  16 2.81  10 2.81   6 2.81   7 2.81   8 2.81   2 2.81   3 2.81
                             4 2.81
   2  0.333  0.000  0.343-  10 2.81  11 2.81  17 2.81   3 2.81   9 2.81   1 2.81   4 2.81   5 2.81
                             8 2.81
   3  0.667  0.000  0.343-  11 2.81  18 2.81  12 2.81   2 2.81   5 2.81   9 2.81   1 2.81   6 2.81
                             7 2.81
   4  0.000  0.333  0.343-  10 2.81  13 2.81  15 2.81   7 2.81   9 2.81   2 2.81   5 2.81   6 2.81
                             1 2.81
   5  0.333  0.333  0.343-  14 2.81  13 2.81  11 2.81   8 2.81   6 2.81   3 2.81   7 2.81   2 2.81
                             4 2.81
   6  0.667  0.333  0.343-  12 2.81  14 2.81  15 2.81   5 2.81   8 2.81   9 2.81   1 2.81   3 2.81
                             4 2.81
   7  0.000  0.667  0.343-  13 2.81  18 2.81  16 2.81   4 2.81   5 2.81   9 2.81   1 2.81   3 2.81
                             8 2.81
   8  0.333  0.667  0.343-  14 2.81  16 2.81  17 2.81   5 2.81   6 2.81   9 2.81   2 2.81   7 2.81
                             1 2.81
   9  0.667  0.667  0.343-  15 2.81  17 2.81  18 2.81   8 2.81   6 2.81   4 2.81   2 2.81   3 2.81
                             7 2.81
  10  0.111  0.111  0.448-  26 2.80  19 2.80  20 2.80   4 2.81   2 2.81   1 2.81  13 2.81  11 2.81
                            17 2.81  15 2.81  12 2.81  16 2.81
  11  0.444  0.111  0.448-  21 2.78  27 2.79  20 2.80   2 2.81   3 2.81   5 2.81  10 2.81  13 2.81
                            14 2.81  12 2.81  17 2.81  18 2.81
  12  0.778  0.111  0.448-  21 2.78  25 2.79  19 2.80   6 2.81   1 2.81   3 2.81  15 2.81  14 2.81
                            18 2.81  10 2.81  11 2.81  16 2.81
  13  0.111  0.444  0.448-  23 2.78  22 2.79  20 2.80   4 2.81   5 2.81   7 2.81  10 2.81  11 2.81
                            14 2.81  15 2.81  16 2.81  18 2.81
  14  0.444  0.444  0.448-  21 2.78  24 2.79  23 2.79   5 2.81   8 2.81   6 2.81  13 2.81  11 2.81
                            16 2.81  12 2.81  17 2.81  15 2.81
  15  0.778  0.444  0.448-  24 2.78  22 2.79  19 2.80   4 2.81   6 2.81   9 2.81  12 2.81  10 2.81
                            18 2.81  13 2.81  14 2.81  17 2.81
  16  0.111  0.778  0.448-  23 2.78  25 2.79  26 2.80   8 2.81   1 2.81   7 2.81  17 2.81  14 2.81
                            18 2.81  13 2.81  10 2.81  12 2.81
  17  0.444  0.778  0.448-  24 2.78  27 2.79  26 2.80   2 2.81   8 2.81   9 2.81  16 2.81  10 2.81
                            18 2.81  14 2.81  15 2.81  11 2.81
  18  0.778  0.778  0.448-  22 2.79  27 2.79  25 2.79   7 2.81   3 2.81   9 2.81  15 2.81  16 2.81
                            17 2.81  11 2.81  12 2.81  13 2.81
  19  0.890  0.222  0.552-  10 2.80  20 2.80  26 2.80  15 2.80  12 2.80  25 2.80  22 2.80  24 2.81
                            21 2.81  33 2.81  28 2.85  31 2.85
  20  0.222  0.222  0.552-  10 2.80  19 2.80  26 2.80  13 2.80  11 2.80  27 2.80  22 2.80  23 2.81
                            21 2.81  32 2.81  29 2.85  31 2.85
  21  0.556  0.222  0.551-  11 2.78  12 2.78  14 2.78  27 2.81  25 2.81  24 2.81  23 2.81  32 2.81
                            33 2.81  20 2.81  19 2.81  30 2.82
  22  0.889  0.555  0.551-  15 2.79  13 2.79  18 2.79  19 2.80  20 2.80  23 2.81  24 2.81  36 2.81
                            34 2.81  25 2.82  27 2.82  31 2.82
  23  0.222  0.556  0.551-  13 2.78  16 2.78  14 2.79  22 2.81  25 2.81  21 2.81  24 2.81  32 2.81
                            26 2.81  20 2.81  35 2.81  34 2.82
  24  0.556  0.556  0.551-  15 2.78  17 2.78  14 2.79  22 2.81  27 2.81  21 2.81  23 2.81  33 2.81
                            26 2.81  19 2.81  35 2.81  36 2.82
  25  0.889  0.889  0.551-  12 2.79  16 2.79  18 2.79  26 2.80  19 2.80  21 2.81  23 2.81  34 2.81
                            30 2.81  22 2.82  27 2.82  28 2.82
  26  0.222  0.889  0.552-  10 2.80  19 2.80  20 2.80  16 2.80  17 2.80  25 2.80  27 2.80  23 2.81
                            24 2.81  35 2.81  28 2.85  29 2.85
  27  0.555  0.889  0.551-  11 2.79  17 2.79  18 2.79  20 2.80  26 2.80  21 2.81  24 2.81  36 2.81
                            30 2.81  22 2.82  25 2.82  29 2.82
  28  0.997  0.997  0.658-  37 1.87  34 2.77  30 2.77  25 2.82  35 2.82  33 2.82  19 2.85  26 2.85
                            29 2.88  31 2.88
  29  0.339  0.997  0.658-  37 1.87  36 2.77  30 2.77  27 2.82  35 2.82  32 2.82  20 2.85  26 2.85
                            28 2.88  31 2.88
  30  0.667  0.000  0.656-  29 2.77  28 2.77  33 2.81  32 2.81  34 2.81  36 2.81  25 2.81  27 2.81
                            21 2.82
  31  0.997  0.340  0.658-  37 1.86  34 2.77  36 2.77  22 2.82  32 2.82  33 2.82  20 2.85  19 2.85
                            28 2.88  29 2.88
  32  0.335  0.335  0.656-  33 2.78  35 2.78  30 2.81  34 2.81  23 2.81  21 2.81  20 2.81  29 2.82
                            31 2.82
  33  0.664  0.335  0.656-  32 2.78  35 2.78  30 2.81  36 2.81  24 2.81  21 2.81  19 2.81  28 2.82
                            31 2.82
  34  0.000  0.667  0.656-  28 2.77  31 2.77  35 2.81  32 2.81  30 2.81  36 2.81  25 2.81  22 2.81
                            23 2.82
  35  0.334  0.664  0.656-  32 2.78  33 2.78  36 2.81  34 2.81  24 2.81  23 2.81  26 2.81  28 2.82
                            29 2.82
  36  0.666  0.667  0.656-  29 2.77  31 2.77  35 2.81  33 2.81  30 2.81  34 2.81  27 2.81  22 2.81
                            24 2.82
  37  0.111  0.112  0.697-  31 1.86  28 1.87  29 1.87

  LATTYP: Found a hexagonal cell.
 ALAT       =     8.4216417639
 C/A-ratio  =     2.5976219743

  Lattice vectors:

 A1 = (   4.2108208820,  -7.2933557091,   0.0000000000)
 A2 = (  -8.4216417639,   0.0000000000,   0.0000000000)
 A3 = (   0.0000000000,   0.0000000000, -21.8762417060)

Analysis of symmetry for initial positions (statically):
 Subroutine PRICEL returns:
 Original cell was already a primitive cell.

 Routine SETGRP: Setting up the symmetry group for a
 hexagonal supercell.

 Subroutine GETGRP returns: Found  1 space group operations
 (whereof  1 operations were pure point group operations)
 out of a pool of 24 trial point group operations.

The static configuration has the point symmetry C_1 .

Analysis of symmetry for dynamics (positions and initial velocities):
 Subroutine PRICEL returns:
 Original cell was already a primitive cell.

[...]

The dynamic configuration has the point symmetry C_1 .

Analysis of constrained symmetry for selective dynamics:
 Subroutine PRICEL returns:
 Original cell was already a primitive cell.

 Routine SETGRP: Setting up the symmetry group for a
 hexagonal supercell.

 Subroutine GETGRP returns: Found  1 space group operations
 (whereof  1 operations were pure point group operations)
 out of a pool of 24 trial point group operations.

The constrained configuration has the point symmetry C_1 .

 KPOINTS: KPOINTS created by Atomic Simulation Env

Automatic generation of k-mesh.
Space group operators:
 irot       det(A)        alpha          n_x          n_y          n_z        tau_x        tau_y        tau_z
    1     1.000000     0.000000     1.000000     0.000000     0.000000     0.000000     0.000000     0.000000

 Subroutine IBZKPT returns following result:

 Found     54 irreducible k-points:

 Following reciprocal coordinates:
            Coordinates               Weight
  0.083333  0.083333  0.000000     16.000000
  0.000000  0.083333  0.000000     16.000000
 -0.083333  0.000000  0.000000     16.000000
  0.250000  0.083333  0.000000     16.000000
  0.166667  0.250000  0.000000     16.000000
 -0.083333  0.166667  0.000000     16.000000
  0.166667 -0.083333  0.000000     16.000000
 -0.083333 -0.250000  0.000000     16.000000
 -0.250000 -0.166667  0.000000     16.000000
  0.416667  0.083333  0.000000     16.000000
  0.333333  0.416667  0.000000     16.000000
 -0.083333  0.333333  0.000000     16.000000
  0.333333 -0.083333  0.000000     16.000000
 -0.083333 -0.416667  0.000000     16.000000
 -0.416667 -0.333333  0.000000     16.000000
 -0.416667  0.083333  0.000000     16.000000
  0.500000 -0.416667  0.000000     16.000000
 -0.083333  0.500000  0.000000     16.000000
  0.500000 -0.083333  0.000000     16.000000
 -0.083333  0.416667  0.000000     16.000000
  0.416667  0.500000  0.000000     16.000000
 -0.250000  0.083333  0.000000     16.000000
 -0.333333 -0.250000  0.000000     16.000000
 -0.083333 -0.333333  0.000000     16.000000
 -0.333333 -0.083333  0.000000     16.000000
 -0.083333  0.250000  0.000000     16.000000
  0.250000  0.333333  0.000000     16.000000
 -0.083333  0.083333  0.000000     16.000000
 -0.166667 -0.083333  0.000000     16.000000
 -0.083333 -0.166667  0.000000     16.000000
  0.250000  0.250000  0.000000     16.000000
  0.000000  0.250000  0.000000     16.000000
 -0.250000  0.000000  0.000000     16.000000
  0.416667  0.250000  0.000000     16.000000
  0.166667  0.416667  0.000000     16.000000
 -0.250000  0.166667  0.000000     16.000000
[...]
  the test charge radii are     1.2059  0.5201
  (the norm of the test charge is              1.0000)
       1 -72.4711       2 -72.4712       3 -72.4709       4 -72.4712       5 -72.4709
       6 -72.4708       7 -72.4710       8 -72.4708       9 -72.4710      10 -72.9222
      11 -72.9314      12 -72.9314      13 -72.9312      14 -72.9422      15 -72.9313
      16 -72.9316      17 -72.9316      18 -72.8946      19 -72.8893      20 -72.8894
      21 -72.9277      22 -72.9142      23 -72.9275      24 -72.9275      25 -72.9149
      26 -72.8898      27 -72.9149      28 -72.5269      29 -72.5266      30 -72.5019
      31 -72.5290      32 -72.4675      33 -72.4673      34 -72.5021      35 -72.4682
      36 -72.5021      37 -36.1353

 E-fermi :   1.1165     XC(G=0):  -6.3871     alpha+bet : -6.7335

 k-point     1 :       0.0833    0.0833    0.0000
  band No.  band energies     occupation
      1      -8.1600      2.00000
      2      -7.0351      2.00000
      3      -6.2819      2.00000
      4      -5.8356      2.00000
      5      -5.7206      2.00000
      6      -5.7156      2.00000
      7      -5.6428      2.00000
      8      -5.5668      2.00000
      9      -5.5619      2.00000
     10      -5.5278      2.00000
     11      -5.2768      2.00000
     12      -5.0840      2.00000
     13      -5.0796      2.00000
     14      -5.0585      2.00000
     15      -5.0497      2.00000
     16      -5.0482      2.00000
     17      -4.9424      2.00000
     18      -4.5980      2.00000
     19      -4.5828      2.00000
     20      -4.5596      2.00000
     21      -4.5448      2.00000
     22      -4.5398      2.00000
     23      -4.4790      2.00000
     24      -4.4251      2.00000
     25      -4.3859      2.00000
     26      -4.3304      2.00000
     27      -4.2649      2.00000
     28      -4.2433      2.00000
     29      -4.2027      2.00000
     30      -4.1763      2.00000
     31      -4.1744      2.00000
     32      -4.1553      2.00000
     33      -4.1347      2.00000
     34      -4.1056      2.00000
     35      -4.1052      2.00000
     36      -4.0669      2.00000
     37      -4.0391      2.00000
     38      -4.0101      2.00000
     39      -3.9293      2.00000
     40      -3.9291      2.00000
     41      -3.6386      2.00000
     42      -3.4879      2.00000
     43      -3.4847      2.00000
     44      -3.4548      2.00000
     45      -3.4464      2.00000
     46      -3.4347      2.00000
     47      -3.4192      2.00000
     48      -3.3682      2.00000
     49      -3.3295      2.00000
     50      -3.2879      2.00000
     51      -3.2014      2.00000
     52      -3.2009      2.00000
     53      -3.1191      2.00000
     54      -3.1142      2.00000
     55      -3.0758      2.00000
     56      -2.6258      2.00000
     57      -2.6177      2.00000
     58      -2.6108      2.00000
     59      -2.5918      2.00000
     60      -2.5684      2.00000
[...]
    206       4.1862      0.00000
    207       4.4378      0.00000
    208       4.5130      0.00000
    209       4.6459      0.00000
    210       5.3826      0.00000
    211       5.4190      0.00000
    212       5.8793      0.00000
    213       5.9013      0.00000
    214       6.2226      0.00000
    215       6.2901      0.00000
    216       6.3264      0.00000
    217       6.4505      0.00000
    218       6.5416      0.00000
    219       6.6239      0.00000
    220       6.8071      0.00000

[...]

 k-point    54 :      -0.4167    0.1667    0.0000
  band No.  band energies     occupation
      1      -7.2587      2.00000
      2      -7.2022      2.00000
      3      -6.5652      2.00000
      4      -6.3621      2.00000
      5      -5.9356      2.00000
      6      -5.6567      2.00000
      7      -5.3272      2.00000
      8      -5.2586      2.00000
      9      -5.2218      2.00000
     10      -5.1700      2.00000
     11      -4.9818      2.00000
     12      -4.9764      2.00000
     13      -4.8511      2.00000
     14      -4.8500      2.00000
     15      -4.8439      2.00000
     16      -4.8019      2.00000
     17      -4.7775      2.00000
     18      -4.7615      2.00000
     19      -4.7463      2.00000
     20      -4.7266      2.00000
     21      -4.6357      2.00000
     22      -4.5521      2.00000
     23      -4.5273      2.00000
     24      -4.5195      2.00000
     25      -4.4931      2.00000
     26      -4.4923      2.00000
     27      -4.4258      2.00000
     28      -4.3240      2.00000
     29      -4.2075      2.00000
     30      -4.1358      2.00000
     31      -4.1273      2.00000
     32      -4.1181      2.00000
     33      -4.1014      2.00000
     34      -4.0739      2.00000
     35      -4.0107      2.00000
     36      -3.9517      2.00000
     37      -3.9232      2.00000
     38      -3.9135      2.00000
     39      -3.7469      2.00000
     40      -3.6864      2.00000
     41      -3.6651      2.00000
     42      -3.6016      2.00000
     43      -3.5117      2.00000
     44      -3.5020      2.00000
     45      -3.4727      2.00000
     46      -3.4140      2.00000
     47      -3.3610      2.00000
     48      -3.3033      2.00000
     49      -3.2709      2.00000
     50      -3.2412      2.00000
     51      -3.2099      2.00000
     52      -3.1638      2.00000
     53      -3.1500      2.00000
     54      -3.0972      2.00000
     55      -3.0357      2.00000
     56      -3.0241      2.00000
     57      -3.0027      2.00000
     58      -2.9950      2.00000
     59      -2.9804      2.00000
     60      -2.9505      2.00000
[...]
    206       4.0071      0.00000
    207       4.0346      0.00000
    208       4.0717      0.00000
    209       4.2402      0.00000
    210       4.3763      0.00000
    211       4.4425      0.00000
    212       4.6155      0.00000
    213       4.7876      0.00000
    214       4.8587      0.00000
    215       5.6181      0.00000
    216       5.7260      0.00000
    217       5.7487      0.00000
    218       5.9492      0.00000
    219       5.9937      0.00000
    220       7.1625      0.00000

 soft charge-density along one line, spin component           1
         0         1         2         3         4         5         6         7         8         9
 total charge-density along one line

------------------------ aborting loop because EDIFF is reached ----------------------------------------

  FORCE on cell =-STRESS in cart. coord.  units (eV):
  Direction    XX          YY          ZZ          XY          YZ          ZX
  Alpha Z   920.05075   920.05075   920.05075
  Ewald  113119.66390113120.87812************     0.03627    -0.40156     0.02150
  Hartree119360.65037119360.99756************     0.00816    -0.08960     0.00414
  E(xc)   -1594.31311 -1594.30975 -1604.81314     0.00081    -0.00102    -0.00005
  Local  ************************244012.93188    -0.02994     0.40665    -0.02202
  n-local   153.44568   153.49886   132.31169     0.00152    -0.06512     0.00222
  augment  1879.21343  1879.15312  1932.55361    -0.00451     0.03454    -0.00139
  Kinetic  5192.74543  5192.57290  5337.74029    -0.00799     0.06936    -0.00379
  Fock        0.00000     0.00000     0.00000     0.00000     0.00000     0.00000
  Total     -35.46441   -35.44947    -0.20435     0.00431    -0.04675     0.00061
  in kB     -42.28696   -42.26914    -0.24366     0.00514    -0.05574     0.00072

 VOLUME and BASIS-vectors are now :
  energy-cutoff  :      400.00
  volume of cell :     1343.68
      direct lattice vectors                 reciprocal lattice vectors
     8.421641764  0.000000000  0.000000000     0.118741693 -0.068555548  0.000000000
     4.210820882  7.293355709  0.000000000     0.000000000  0.137111097  0.000000000
     0.000000000  0.000000000 21.876241706     0.000000000  0.000000000  0.045711691

  length of vectors
     8.421641764  8.421641764 21.876241706     0.137111097  0.137111097  0.045711691

 FORCES acting on ions
    electron-ion (+dipol)            ewald-force                    non-local-force                 convergence-correction
   -.187E+00 -.116E+00 0.231E+04   0.175E+00 0.109E+00 -.231E+04   0.660E-02 0.378E-02 -.122E+01   -.638E-04 -.393E-04 -.580E-03
   0.187E+00 -.115E+00 0.231E+04   -.175E+00 0.109E+00 -.231E+04   -.656E-02 0.374E-02 -.122E+01   0.144E-03 -.255E-04 -.528E-03
   0.275E-03 0.650E-01 0.231E+04   -.119E-03 -.394E-01 -.231E+04   -.406E-04 -.166E-01 -.120E+01   -.797E-04 -.252E-04 -.537E-03
   -.105E-03 0.215E+00 0.231E+04   0.758E-04 -.202E+00 -.231E+04   -.121E-04 -.739E-02 -.122E+01   0.519E-04 0.685E-04 -.557E-03
   0.208E+00 0.118E+00 0.231E+04   -.213E+00 -.120E+00 -.231E+04   0.194E-02 0.128E-02 -.123E+01   0.458E-04 -.416E-04 -.512E-03
   -.208E+00 0.117E+00 0.231E+04   0.213E+00 -.120E+00 -.231E+04   -.198E-02 0.127E-02 -.123E+01   -.978E-04 0.204E-04 -.543E-03
   0.616E-01 -.270E-01 0.231E+04   -.391E-01 0.142E-01 -.231E+04   -.145E-01 0.837E-02 -.120E+01   -.600E-04 0.125E-04 -.545E-03
   -.537E-03 -.230E+00 0.231E+04   0.519E-03 0.235E+00 -.231E+04   0.558E-05 -.227E-02 -.123E+01   0.278E-04 -.583E-04 -.521E-03
   -.611E-01 -.274E-01 0.231E+04   0.385E-01 0.144E-01 -.231E+04   0.146E-01 0.845E-02 -.120E+01   0.323E-04 0.886E-04 -.526E-03
   -.748E-02 -.763E-01 0.778E+03   0.739E-02 0.767E-01 -.778E+03   0.197E-03 0.159E-03 -.304E+00   0.105E-03 -.344E-04 0.663E-04
   0.191E+01 -.767E-01 0.780E+03   -.189E+01 0.418E-01 -.780E+03   -.417E-01 0.221E-01 -.320E+00   0.211E-04 -.162E-04 -.598E-04
   -.191E+01 -.758E-01 0.780E+03   0.189E+01 0.408E-01 -.780E+03   0.416E-01 0.220E-01 -.320E+00   -.126E-03 -.129E-04 -.501E-04
   0.939E+00 0.167E+01 0.780E+03   -.957E+00 -.163E+01 -.780E+03   -.306E-02 -.453E-01 -.319E+00   0.734E-04 0.114E-04 -.297E-05
   0.881E-03 0.650E-02 0.782E+03   -.767E-03 -.706E-02 -.782E+03   -.245E-03 0.512E-03 -.389E+00   -.507E-04 0.719E-05 -.201E-04
   -.933E+00 0.166E+01 0.780E+03   0.951E+00 -.163E+01 -.780E+03   0.282E-02 -.453E-01 -.319E+00   -.225E-04 0.105E-03 -.296E-04
   -.909E+00 -.158E+01 0.780E+03   0.867E+00 0.157E+01 -.780E+03   0.372E-01 0.243E-01 -.321E+00   0.141E-04 -.884E-04 0.498E-04
   0.905E+00 -.157E+01 0.780E+03   -.863E+00 0.157E+01 -.780E+03   -.372E-01 0.243E-01 -.321E+00   0.424E-04 0.170E-05 0.132E-04
   0.215E-02 0.122E-01 0.780E+03   -.223E-02 -.128E-01 -.779E+03   0.424E-04 0.175E-02 -.344E+00   -.564E-04 0.268E-04 -.941E-04
   -.279E+01 0.158E+01 -.775E+03   0.284E+01 -.161E+01 0.775E+03   -.571E-01 0.328E-01 0.439E+00   0.328E-04 -.139E-04 0.115E-02
   0.283E+01 0.158E+01 -.775E+03   -.288E+01 -.161E+01 0.775E+03   0.557E-01 0.328E-01 0.437E+00   0.489E-04 0.562E-06 0.112E-02
   -.319E-01 0.114E+01 -.759E+03   0.320E-01 -.116E+01 0.759E+03   0.585E-03 0.234E-01 0.453E+00   -.818E-04 0.110E-03 0.114E-02
   0.117E-01 0.415E+00 -.763E+03   -.119E-01 -.537E+00 0.763E+03   0.228E-03 0.116E+00 0.320E+00   0.549E-04 -.425E-04 0.989E-03
   0.108E+01 -.574E+00 -.759E+03   -.110E+01 0.585E+00 0.759E+03   0.204E-01 -.923E-02 0.448E+00   0.113E-03 -.164E-04 0.117E-02
   -.111E+01 -.594E+00 -.759E+03   0.113E+01 0.605E+00 0.759E+03   -.196E-01 -.828E-02 0.449E+00   -.167E-03 0.462E-04 0.114E-02
   -.306E+00 -.170E+00 -.763E+03   0.412E+00 0.232E+00 0.763E+03   -.102E+00 -.608E-01 0.321E+00   0.702E-04 -.356E-04 0.102E-02
   -.221E-01 -.336E+01 -.775E+03   0.218E-01 0.341E+01 0.774E+03   0.654E-03 -.580E-01 0.445E+00   0.283E-04 -.946E-04 0.114E-02
   0.327E+00 -.111E+00 -.763E+03   -.433E+00 0.173E+00 0.763E+03   0.101E+00 -.623E-01 0.322E+00   -.986E-04 0.441E-04 0.943E-03
   0.752E+01 0.426E+01 -.229E+04   -.824E+01 -.468E+01 0.229E+04   0.724E+00 0.425E+00 0.594E+00   0.122E-03 0.371E-05 0.700E-03
   -.746E+01 0.424E+01 -.229E+04   0.819E+01 -.467E+01 0.229E+04   -.730E+00 0.427E+00 0.599E+00   -.125E-03 0.615E-04 0.667E-03
   -.461E-02 -.227E+00 -.229E+04   0.475E-02 0.262E+00 0.229E+04   -.728E-03 -.350E-01 0.110E+01   0.225E-05 0.220E-03 0.725E-03
   -.586E-02 -.883E+01 -.229E+04   0.597E-02 0.965E+01 0.229E+04   -.203E-03 -.829E+00 0.565E+00   0.482E-04 -.115E-03 0.722E-03
   0.432E+01 0.243E+01 -.229E+04   -.409E+01 -.230E+01 0.229E+04   -.236E+00 -.132E+00 0.119E+01   0.110E-03 0.116E-03 0.705E-03
   -.432E+01 0.244E+01 -.229E+04   0.409E+01 -.231E+01 0.229E+04   0.236E+00 -.132E+00 0.119E+01   -.160E-03 0.860E-04 0.749E-03
   -.952E-01 0.234E+00 -.229E+04   0.126E+00 -.247E+00 0.229E+04   -.348E-01 0.897E-02 0.109E+01   0.244E-03 -.131E-03 0.691E-03
   -.553E-02 -.482E+01 -.229E+04   0.575E-02 0.457E+01 0.229E+04   -.504E-04 0.264E+00 0.119E+01   -.509E-04 -.136E-03 0.668E-03
   0.980E-01 0.225E+00 -.229E+04   -.129E+00 -.239E+00 0.229E+04   0.350E-01 0.964E-02 0.109E+01   -.193E-03 -.104E-03 0.699E-03
   -.229E-01 0.111E+00 -.285E+03   0.261E-01 -.131E+00 0.286E+03   -.219E-02 0.129E-01 -.135E+01   -.225E-06 0.593E-05 0.115E-04
   0.769E-02 -.459E-01 0.292E+01   -.904E-13 -.111E-12 -.858E-11   -.867E-02 0.305E-01 -.303E+01   -.290E-05 0.607E-05 0.112E-01

 POSITION                                       TOTAL-FORCE (eV/Angst)
      0.00000      0.00000      7.50000        -0.005185     -0.002490     -0.045985
      2.80721      0.00000      7.50000         0.005192     -0.002475     -0.045929
      5.61443      0.00000      7.50000         0.000062      0.009396     -0.046958
      1.40361      2.43112      7.50000         0.000037      0.006213     -0.045615
      4.21082      2.43112      7.50000        -0.002445     -0.001275     -0.052249
      7.01803      2.43112      7.50000         0.002559     -0.001279     -0.052305
      2.80721      4.86224      7.50000         0.007981     -0.003972     -0.046497
      5.61443      4.86224      7.50000         0.000042      0.003195     -0.052353
      8.42164      4.86224      7.50000        -0.007970     -0.004019     -0.046512
      1.40361      0.81037      9.79208         0.000242      0.001025      0.138531
      4.21082      0.81037      9.79208        -0.018061     -0.012449      0.066985
      7.01803      0.81037      9.79208         0.017971     -0.012620      0.067262
      2.80721      3.24149      9.79208        -0.021007     -0.008094      0.068294
      5.61443      3.24149      9.79208        -0.000155      0.000375      0.031437
      8.42164      3.24149      9.79208         0.020868     -0.007989      0.068059
      4.21082      5.67261      9.79208        -0.004303      0.021251      0.066081
      7.01803      5.67261      9.79208         0.004316      0.021232      0.066273
      9.82525      5.67261      9.79208        -0.000067      0.001626     -0.024939
      8.42614      1.61855     12.07513        -0.006303      0.004840     -0.009898
      2.80281      1.61858     12.07523         0.005329      0.004842     -0.010692
      5.61439      1.62003     12.05636         0.000600     -0.003062     -0.010207
      9.82517      4.04796     12.06336         0.000027     -0.006131     -0.011945
      4.21002      4.05215     12.05654        -0.002718      0.002883     -0.014315
      7.01868      4.05207     12.05652         0.003265      0.003435     -0.013989
     11.23307      6.48583     12.06332         0.004330      0.001108     -0.013248
      5.61439      6.48727     12.07426         0.000458     -0.001943     -0.005828
      8.41744      6.48594     12.06329        -0.004712     -0.000134     -0.013101
     12.59543      7.27252     14.40111         0.000063      0.002321      0.003303
      7.05517      7.27251     14.40104        -0.001092      0.002643      0.003602
      5.61444      0.00220     14.36003        -0.000559      0.000064      0.010506
      9.82526      2.47665     14.40110        -0.000016     -0.009877     -0.003201
      4.22638      2.44068     14.35954        -0.009249     -0.002378     -0.011665
      7.00247      2.44067     14.35962         0.009375     -0.002425     -0.012324
      2.80887      4.86309     14.36002        -0.003630     -0.004025      0.008112
      5.61441      4.84529     14.35952         0.000146      0.011078     -0.009748
      8.41992      4.86305     14.36006         0.003551     -0.003828      0.007733
      1.40294      0.81709     15.24789         0.001057     -0.007063     -0.006675
    total drift:                               -0.000986     -0.015361     -0.092536

  FREE ENERGIE OF THE ION-ELECTRON SYSTEM (eV)
  free  energy   TOTEN  =      -213.25526005 eV

  energy  without entropy=     -211.10188754  energy(sigma->0) =     -212.17857379

 stress matrix after NEB project (eV)
    -35.46441      0.00431      0.00061
      0.00431    -35.44947     -0.04675
      0.00061     -0.04675     -0.20435
  FORCES: max atom, RMS     0.015673    0.008561
  FORCE total and by dimension    0.052077    0.014315
  Stress total and by dimension   50.144148   35.464412