 vasp.5.4.1 24Jun15 (build Oct 10 2016 12:42:00) complex

 executed on           IFC91_ompi date 2018.06.30  20:33:11

 INCAR:
 POTCAR:    PAW_PBE Pt 04Feb2005
 POTCAR:    PAW_PBE C 08Apr2002
 POTCAR:    PAW_PBE H 15Jun2001
 POTCAR:    PAW_PBE Pt 04Feb2005
   VRHFIN =Pt: s1d9

   TITEL  = PAW_PBE Pt 04Feb2005
   POMASS =  195.080; ZVAL   =   10.000    mass and valenz
   ENMAX  =  230.283; ENMIN  =  172.712 eV

 POTCAR:    PAW_PBE C 08Apr2002
   VRHFIN =C: s2p2

   TITEL  = PAW_PBE C 08Apr2002
   POMASS =   12.011; ZVAL   =    4.000    mass and valenz
   ENMAX  =  400.000; ENMIN  =  300.000 eV

 POTCAR:    PAW_PBE H 15Jun2001
   VRHFIN =H: ultrasoft test

   TITEL  = PAW_PBE H 15Jun2001
   POMASS =    1.000; ZVAL   =    1.000    mass and valenz
   ENMAX  =  250.000; ENMIN  =  200.000 eV

 Optimization of the real space projectors (new method)

 maximal supplied QI-value         = 14.36
 optimisation between [QCUT,QGAM] = [ 10.20, 20.39] = [ 29.12,116.47] Ry
 Optimized for a Real-space Cutoff    1.51 Angstroem

   l    n(q)    QCUT    max X(q) W(low)/X(q) W(high)/X(q)  e(spline)
   2      8    10.197    66.195    0.45E-03    0.45E-03    0.14E-06
   2      8    10.197    64.643    0.46E-03    0.46E-03    0.14E-06
   0      9    10.197    95.520    0.15E-03    0.11E-03    0.54E-07
   0      9    10.197    63.403    0.15E-03    0.11E-03    0.52E-07
   1      9    10.197    19.961    0.13E-03    0.17E-03    0.77E-07
   1      9    10.197    13.289    0.10E-03    0.15E-03    0.67E-07
 Optimization of the real space projectors (new method)

[...]

   l    n(q)    QCUT    max X(q) W(low)/X(q) W(high)/X(q)  e(spline)
   0      8    10.053   115.676    0.49E-03    0.72E-03    0.18E-06
   0      8    10.053    87.132    0.49E-03    0.71E-03    0.18E-06
   1      7    10.053     4.429    0.32E-03    0.31E-03    0.18E-06
   1      7    10.053     2.733    0.23E-03    0.19E-03    0.20E-06
 Optimization of the real space projectors (new method)

 maximal supplied QI-value         = 34.20
 optimisation between [QCUT,QGAM] = [  9.92, 20.18] = [ 27.55,114.04] Ry
 Optimized for a Real-space Cutoff    1.26 Angstroem

   l    n(q)    QCUT    max X(q) W(low)/X(q) W(high)/X(q)  e(spline)
   0      8     9.919    19.460    0.50E-03    0.23E-03    0.29E-06
   0      8     9.919    12.209    0.48E-03    0.23E-03    0.28E-06
   1      7     9.919     4.655    0.17E-03    0.75E-03    0.30E-06
  PAW_PBE Pt 04Feb2005                  :
  PAW_PBE C 08Apr2002                   :
  PAW_PBE H 15Jun2001                   :

 POSCAR: Pt  C  H
  positions in cartesian coordinates
 exchange correlation table for  LEXCH =        8
   RHO(1)=    0.500       N(1)  =     2000
   RHO(2)=  100.500       N(2)  =     4000

 VTST: version 3.1, (03/28/14)

 CHAIN: initializing optimizer

 OPT: Using VASP Dynamics algorithm
 CHAIN: Read ICHAIN            0

 POSCAR: Pt  C  H
  positions in cartesian coordinates

 ion  position               nearest neighbor table
   1  0.000  0.000  0.343-  12 2.81  16 2.81  10 2.81   6 2.81   7 2.81   8 2.81   2 2.81   3 2.81
                             4 2.81
   2  0.333  0.000  0.343-  10 2.81  11 2.81  17 2.81   3 2.81   9 2.81   1 2.81   4 2.81   5 2.81
                             8 2.81
   3  0.667  0.000  0.343-  11 2.81  18 2.81  12 2.81   2 2.81   5 2.81   9 2.81   1 2.81   6 2.81
                             7 2.81
   4  0.000  0.333  0.343-  10 2.81  13 2.81  15 2.81   7 2.81   9 2.81   2 2.81   5 2.81   6 2.81
                             1 2.81
   5  0.333  0.333  0.343-  14 2.81  13 2.81  11 2.81   8 2.81   6 2.81   3 2.81   7 2.81   2 2.81
                             4 2.81
   6  0.667  0.333  0.343-  12 2.81  14 2.81  15 2.81   5 2.81   8 2.81   9 2.81   1 2.81   3 2.81
                             4 2.81
   7  0.000  0.667  0.343-  13 2.81  18 2.81  16 2.81   4 2.81   5 2.81   9 2.81   1 2.81   3 2.81
                             8 2.81
   8  0.333  0.667  0.343-  14 2.81  16 2.81  17 2.81   5 2.81   6 2.81   9 2.81   2 2.81   7 2.81
                             1 2.81
   9  0.667  0.667  0.343-  15 2.81  17 2.81  18 2.81   8 2.81   6 2.81   4 2.81   2 2.81   3 2.81
                             7 2.81
  10  0.111  0.111  0.448-  26 2.78  19 2.78   2 2.81   4 2.81   1 2.81  11 2.81  13 2.81  15 2.81
                            17 2.81  16 2.81  12 2.81  20 2.82
  11  0.444  0.111  0.448-  27 2.78   3 2.81   5 2.81   2 2.81  13 2.81  14 2.81  10 2.81  17 2.81
                            18 2.81  12 2.81  21 2.81  20 2.81
  12  0.778  0.111  0.448-  25 2.78  19 2.78   1 2.81   6 2.81   3 2.81  15 2.81  14 2.81  16 2.81
                            18 2.81  10 2.81  11 2.81  21 2.83
  13  0.111  0.444  0.448-  22 2.79  20 2.80   7 2.81   4 2.81   5 2.81  14 2.81  10 2.81  11 2.81
                            18 2.81  15 2.81  16 2.81  23 2.81
  14  0.444  0.444  0.448-  24 2.78  21 2.80   5 2.81   6 2.81   8 2.81  11 2.81  13 2.81  12 2.81
                            16 2.81  15 2.81  17 2.81  23 2.81
  15  0.778  0.444  0.448-  19 2.77  22 2.79  24 2.79   4 2.81   6 2.81   9 2.81  12 2.81  10 2.81
                            18 2.81  13 2.81  14 2.81  17 2.81
  16  0.111  0.778  0.448-  26 2.78  25 2.79   1 2.81   8 2.81   7 2.81  17 2.81  14 2.81  12 2.81
                            18 2.81  13 2.81  10 2.81  23 2.82
  17  0.444  0.778  0.448-  24 2.78  26 2.79  27 2.79   2 2.81   8 2.81   9 2.81  16 2.81  10 2.81
                            18 2.81  14 2.81  15 2.81  11 2.81
  18  0.778  0.778  0.448-  22 2.78  25 2.78  27 2.79   7 2.81   3 2.81   9 2.81  15 2.81  16 2.81
                            17 2.81  11 2.81  12 2.81  13 2.81
  19  0.888  0.224  0.551-  15 2.77  12 2.78  10 2.78  25 2.81  22 2.81  28 2.81  26 2.81  24 2.81
                            31 2.81  33 2.82  20 2.82  21 2.83
  20  0.223  0.225  0.553-  23 2.77  21 2.77  29 2.78  31 2.79  13 2.80  27 2.80  22 2.81  11 2.81
                            10 2.82  19 2.82  26 2.82  32 2.99
  21  0.552  0.225  0.553-  23 2.77  20 2.77  30 2.78  33 2.79  14 2.80  27 2.80  24 2.81  11 2.81
                            25 2.83  19 2.83  12 2.83  32 2.98
  22  0.888  0.557  0.551-  18 2.78  13 2.79  15 2.79  31 2.80  23 2.80  20 2.81  25 2.81  19 2.81
                            34 2.81  27 2.81  24 2.81  36 2.82
  23  0.223  0.554  0.553-  21 2.77  20 2.77  35 2.79  34 2.79  24 2.80  22 2.80  13 2.81  14 2.81
                            16 2.82  26 2.83  25 2.83  32 2.97
  24  0.554  0.557  0.551-  17 2.78  14 2.78  15 2.79  33 2.80  23 2.80  26 2.81  21 2.81  19 2.81
                            27 2.81  36 2.81  22 2.81  35 2.82
  25  0.888  0.890  0.551-  12 2.78  18 2.78  16 2.79  34 2.81  22 2.81  26 2.81  27 2.81  19 2.81
                            28 2.81  30 2.82  21 2.83  23 2.83
  26  0.221  0.890  0.551-  10 2.78  16 2.78  17 2.79  24 2.81  35 2.81  25 2.81  27 2.81  19 2.81
                            29 2.81  28 2.82  20 2.82  23 2.83
  27  0.554  0.891  0.551-  11 2.78  17 2.79  18 2.79  36 2.80  20 2.80  21 2.80  25 2.81  26 2.81
                            24 2.81  30 2.81  22 2.81  29 2.82
  28  0.997  0.003  0.656-  33 2.80  29 2.80  35 2.80  30 2.80  34 2.81  31 2.81  19 2.81  25 2.81
                            26 2.82
  29  0.331  0.003  0.656-  20 2.78  35 2.80  28 2.80  36 2.81  31 2.81  26 2.81  30 2.81  27 2.82
                            32 2.82
  30  0.665  0.003  0.656-  21 2.78  34 2.80  36 2.80  28 2.80  33 2.81  27 2.81  29 2.81  25 2.82
                            32 2.82
  31  0.997  0.336  0.656-  20 2.79  33 2.80  22 2.80  28 2.81  36 2.81  29 2.81  34 2.81  19 2.81
                            32 2.83
  32  0.331  0.336  0.668-  37 2.10  30 2.82  33 2.82  35 2.82  29 2.82  34 2.82  31 2.83  23 2.97
                            21 2.98  20 2.99
  33  0.665  0.336  0.656-  21 2.79  31 2.80  24 2.80  28 2.80  36 2.81  30 2.81  35 2.81  19 2.82
                            32 2.82
  34  0.997  0.670  0.656-  23 2.79  30 2.80  28 2.81  36 2.81  35 2.81  25 2.81  31 2.81  22 2.81
                            32 2.82
  35  0.330  0.670  0.656-  23 2.79  29 2.80  28 2.80  34 2.81  26 2.81  36 2.81  33 2.81  24 2.82
                            32 2.82
  36  0.664  0.670  0.656-  27 2.80  30 2.80  29 2.81  34 2.81  31 2.81  33 2.81  35 2.81  24 2.81
                            22 2.82
  37  0.323  0.329  0.763-  39 1.10  40 1.10  38 1.51  32 2.10
  38  0.450  0.379  0.796-  43 1.10  42 1.10  41 1.11  37 1.51
  39  0.178  0.424  0.774-  37 1.10
  40  0.355  0.188  0.773-  37 1.10
  41  0.436  0.366  0.846-  38 1.11
  42  0.595  0.287  0.784-  38 1.10
  43  0.417  0.521  0.787-  38 1.10

  LATTYP: Found a hexagonal cell.
 ALAT       =     8.4216417639
 C/A-ratio  =     2.5976219743

  Lattice vectors:

 A1 = (   4.2108208820,  -7.2933557091,   0.0000000000)
 A2 = (  -8.4216417639,   0.0000000000,   0.0000000000)
 A3 = (   0.0000000000,   0.0000000000, -21.8762417060)

Analysis of symmetry for initial positions (statically):
 Subroutine PRICEL returns:
 Original cell was already a primitive cell.

 Routine SETGRP: Setting up the symmetry group for a
 hexagonal supercell.

 Subroutine GETGRP returns: Found  1 space group operations
 (whereof  1 operations were pure point group operations)
 out of a pool of 24 trial point group operations.

The static configuration has the point symmetry C_1 .

Analysis of symmetry for dynamics (positions and initial velocities):
 Subroutine PRICEL returns:
 Original cell was already a primitive cell.

[...]

The dynamic configuration has the point symmetry C_1 .

Analysis of constrained symmetry for selective dynamics:
 Subroutine PRICEL returns:
 Original cell was already a primitive cell.

 Routine SETGRP: Setting up the symmetry group for a
 hexagonal supercell.

 Subroutine GETGRP returns: Found  1 space group operations
 (whereof  1 operations were pure point group operations)
 out of a pool of 24 trial point group operations.

The constrained configuration has the point symmetry C_1 .

 KPOINTS: KPOINTS created by Atomic Simulation Env

Automatic generation of k-mesh.
Space group operators:
 irot       det(A)        alpha          n_x          n_y          n_z        tau_x        tau_y        tau_z
    1     1.000000     0.000000     1.000000     0.000000     0.000000     0.000000     0.000000     0.000000

 Subroutine IBZKPT returns following result:

 Found     54 irreducible k-points:

 Following reciprocal coordinates:
            Coordinates               Weight
  0.083333  0.083333  0.000000     16.000000
  0.000000  0.083333  0.000000     16.000000
 -0.083333  0.000000  0.000000     16.000000
  0.250000  0.083333  0.000000     16.000000
  0.166667  0.250000  0.000000     16.000000
 -0.083333  0.166667  0.000000     16.000000
  0.166667 -0.083333  0.000000     16.000000
 -0.083333 -0.250000  0.000000     16.000000
 -0.250000 -0.166667  0.000000     16.000000
  0.416667  0.083333  0.000000     16.000000
  0.333333  0.416667  0.000000     16.000000
 -0.083333  0.333333  0.000000     16.000000
  0.333333 -0.083333  0.000000     16.000000
 -0.083333 -0.416667  0.000000     16.000000
 -0.416667 -0.333333  0.000000     16.000000
[...]
     13      -4.7638      2.00000
     14      -4.7508      2.00000
     15      -4.7385      2.00000
     16      -4.7258      2.00000
     17      -4.7213      2.00000
     18      -4.7089      2.00000
     19      -4.6903      2.00000
     20      -4.2842      2.00000
     21      -4.2593      2.00000
     22      -4.2364      2.00000
     23      -4.2205      2.00000
     24      -4.2060      2.00000
     25      -4.2014      2.00000
     26      -4.1425      2.00000
     27      -4.0919      2.00000
     28      -4.0498      2.00000
     29      -4.0082      2.00000
     30      -3.9311      2.00000
     31      -3.9089      2.00000
     32      -3.8638      2.00000
     33      -3.8473      2.00000
     34      -3.8352      2.00000
     35      -3.8265      2.00000
     36      -3.7939      2.00000
     37      -3.7812      2.00000
     38      -3.7660      2.00000
     39      -3.7536      2.00000
     40      -3.6932      2.00000
     41      -3.6861      2.00000
     42      -3.6607      2.00000
     43      -3.6026      2.00000
     44      -3.5831      2.00000
     45      -3.2399      2.00000
     46      -3.1561      2.00000
     47      -3.1548      2.00000
     48      -3.1286      2.00000
     49      -3.1202      2.00000
     50      -3.0901      2.00000
     51      -3.0772      2.00000
     52      -3.0653      2.00000
     53      -2.9808      2.00000
     54      -2.9710      2.00000
     55      -2.9156      2.00000
     56      -2.8784      2.00000
     57      -2.8612      2.00000
     58      -2.8088      2.00000
     59      -2.7902      2.00000
     60      -2.3837      2.00000
[...]
    211       4.4105      0.00000
    212       4.5111      0.00000
    213       4.6722      0.00000
    214       4.8441      0.00000
    215       4.9601      0.00000
    216       5.5565      0.00000
    217       5.7529      0.00000
    218       5.7738      0.00000
    219       6.1744      0.00000
    220       6.2457      0.00000
    221       6.2508      0.00000
    222       6.6177      0.00000
    223       6.7131      0.00000
    224       6.7575      0.00000
    225       7.0505      0.00000

[...]

 k-point    54 :      -0.4167    0.1667    0.0000
  band No.  band energies     occupation
      1     -12.3739      2.00000
      2      -8.6662      2.00000
      3      -6.8764      2.00000
      4      -6.8494      2.00000
      5      -6.0893      2.00000
      6      -5.6071      2.00000
      7      -5.5882      2.00000
      8      -5.0114      2.00000
      9      -4.9533      2.00000
     10      -4.9267      2.00000
     11      -4.8434      2.00000
     12      -4.7182      2.00000
     13      -4.6564      2.00000
     14      -4.6457      2.00000
     15      -4.5279      2.00000
     16      -4.5202      2.00000
     17      -4.5067      2.00000
     18      -4.4973      2.00000
     19      -4.4531      2.00000
     20      -4.4416      2.00000
     21      -4.4301      2.00000
     22      -4.4143      2.00000
     23      -4.3750      2.00000
     24      -4.3142      2.00000
     25      -4.2145      2.00000
     26      -4.1938      2.00000
     27      -4.1741      2.00000
     28      -4.1649      2.00000
     29      -4.1175      2.00000
     30      -4.0703      2.00000
     31      -3.9952      2.00000
     32      -3.8782      2.00000
     33      -3.8466      2.00000
     34      -3.7955      2.00000
     35      -3.7861      2.00000
     36      -3.7609      2.00000
     37      -3.7484      2.00000
     38      -3.7049      2.00000
     39      -3.6162      2.00000
     40      -3.6055      2.00000
     41      -3.5993      2.00000
     42      -3.5687      2.00000
     43      -3.3600      2.00000
     44      -3.3471      2.00000
     45      -3.3277      2.00000
     46      -3.2231      2.00000
     47      -3.1779      2.00000
     48      -3.1477      2.00000
     49      -3.1309      2.00000
     50      -3.0930      2.00000
     51      -3.0398      2.00000
     52      -2.9800      2.00000
     53      -2.9476      2.00000
     54      -2.9327      2.00000
     55      -2.9051      2.00000
     56      -2.8308      2.00000
     57      -2.8226      2.00000
     58      -2.8037      2.00000
     59      -2.6952      2.00000
     60      -2.6880      2.00000
[...]
    211       4.2895      0.00000
    212       4.3029      0.00000
    213       4.3854      0.00000
    214       4.4043      0.00000
    215       4.5011      0.00000
    216       4.6200      0.00000
    217       4.7404      0.00000
    218       4.8933      0.00000
    219       5.1276      0.00000
    220       5.1997      0.00000
    221       5.4227      0.00000
    222       6.0544      0.00000
    223       6.0975      0.00000
    224       6.5838      0.00000
    225       6.7699      0.00000

 soft charge-density along one line, spin component           1
         0         1         2         3         4         5         6         7         8         9
 total charge-density along one line

------------------------ aborting loop because EDIFF is reached ----------------------------------------

  FORCE on cell =-STRESS in cart. coord.  units (eV):
  Direction    XX          YY          ZZ          XY          YZ          ZX
  Alpha Z   964.74100   964.74100   964.74100
  Ewald  109665.25289109573.15672************    34.69231    10.28257    63.51310
  Hartree116247.97870116175.32585************    24.40024    10.17907    43.36595
  E(xc)   -1636.71683 -1636.70666 -1646.40062     0.02823    -0.02486     0.04981
  Local  ************************236733.92802   -59.80980   -22.40670  -108.28878
  n-local   133.98756   133.61168   118.55220     0.43939    -0.47268     0.50151
  augment  1880.50486  1879.79552  1928.37705    -0.16751     0.66211    -0.05809
  Kinetic  5362.20457  5358.17108  5492.53886     0.46499     1.56931     1.00057
  Fock        0.00000     0.00000     0.00000     0.00000     0.00000     0.00000
  Total     -37.03611   -36.82005    -0.61122     0.04785    -0.21120     0.08408
  in kB     -44.16102   -43.90339    -0.72881     0.05706    -0.25183     0.10025

 VOLUME and BASIS-vectors are now :
  energy-cutoff  :      400.00
  volume of cell :     1343.68
      direct lattice vectors                 reciprocal lattice vectors
     8.421641764  0.000000000  0.000000000     0.118741693 -0.068555548  0.000000000
     4.210820882  7.293355709  0.000000000     0.000000000  0.137111097  0.000000000
     0.000000000  0.000000000 21.876241706     0.000000000  0.000000000  0.045711691

  length of vectors
     8.421641764  8.421641764 21.876241706     0.137111097  0.137111097  0.045711691

 FORCES acting on ions
    electron-ion (+dipol)            ewald-force                    non-local-force                 convergence-correction
   0.337E-01 0.469E-01 0.233E+04   -.243E-01 -.488E-01 -.232E+04   -.522E-02 0.169E-02 -.108E+01   -.365E-03 0.364E-04 -.264E-03
   -.749E-01 -.342E+00 0.233E+04   0.649E-01 0.344E+00 -.232E+04   -.429E-02 -.584E-02 -.122E+01   -.106E-04 0.390E-04 -.474E-03
   0.470E-01 -.327E+00 0.233E+04   -.408E-01 0.330E+00 -.232E+04   0.696E-02 -.633E-02 -.121E+01   0.376E-03 0.788E-04 -.203E-03
   -.353E+00 0.758E-01 0.233E+04   0.360E+00 -.975E-01 -.232E+04   -.127E-01 0.458E-02 -.121E+01   -.195E-03 0.813E-04 -.290E-03
   0.417E-02 -.443E-01 0.232E+04   -.227E-02 0.363E-01 -.232E+04   -.161E-02 0.448E-02 -.125E+01   0.219E-03 0.107E-03 -.329E-03
   0.355E+00 0.111E+00 0.233E+04   -.358E+00 -.129E+00 -.232E+04   0.107E-01 0.256E-02 -.121E+01   -.233E-04 -.213E-03 -.201E-03
   -.284E+00 0.210E+00 0.232E+04   0.299E+00 -.218E+00 -.232E+04   -.614E-02 0.142E-01 -.121E+01   0.423E-04 0.182E-03 -.140E-03
   0.315E+00 0.223E+00 0.233E+04   -.325E+00 -.229E+00 -.232E+04   0.374E-02 0.123E-01 -.121E+01   -.189E-03 -.157E-03 -.319E-03
   -.243E-01 -.224E-01 0.233E+04   0.261E-01 0.146E-01 -.232E+04   -.972E-03 0.329E-02 -.123E+01   0.147E-03 -.154E-03 -.236E-03
   -.300E+01 -.179E+01 0.833E+03   0.288E+01 0.171E+01 -.833E+03   0.105E+00 0.837E-01 -.312E+00   -.424E-03 0.154E-03 0.412E-03
   -.176E+00 -.292E+01 0.833E+03   0.185E+00 0.295E+01 -.833E+03   -.628E-02 0.356E-01 -.297E+00   0.469E-03 0.965E-04 0.465E-03
   0.331E+01 -.173E+01 0.833E+03   -.320E+01 0.166E+01 -.833E+03   -.113E+00 0.836E-01 -.311E+00   -.460E-04 -.125E-03 0.399E-03
   -.259E+01 0.843E+00 0.833E+03   0.263E+01 -.873E+00 -.832E+03   0.711E-02 0.212E-01 -.291E+00   -.229E-04 0.433E-03 0.684E-03
   0.265E+01 0.113E+01 0.833E+03   -.269E+01 -.116E+01 -.833E+03   -.177E-01 0.158E-01 -.277E+00   0.242E-04 -.110E-03 0.491E-03
   0.244E-01 0.298E+00 0.836E+03   -.231E-01 -.337E+00 -.836E+03   -.812E-02 0.478E-01 -.410E+00   -.119E-05 -.247E-04 0.514E-03
   0.287E+00 0.375E+01 0.833E+03   -.283E+00 -.362E+01 -.832E+03   -.106E-01 -.111E+00 -.290E+00   -.478E-03 -.523E-04 0.573E-03
   0.588E+00 -.493E+00 0.836E+03   -.609E+00 0.486E+00 -.836E+03   0.110E-01 0.208E-01 -.406E+00   0.894E-04 -.322E-03 0.473E-03
   -.751E+00 -.525E+00 0.836E+03   0.782E+00 0.526E+00 -.836E+03   -.214E-01 0.177E-01 -.407E+00   0.389E-03 -.471E-04 0.649E-03
   -.984E+00 0.198E+01 -.667E+03   0.996E+00 -.202E+01 0.666E+03   -.203E-01 0.504E-01 0.528E+00   -.191E-03 0.686E-04 0.154E-02
   -.249E+00 -.737E+00 -.687E+03   0.655E+00 0.970E+00 0.687E+03   -.401E+00 -.237E+00 0.151E+00   -.596E-05 0.429E-03 0.162E-02
   0.119E+01 0.961E+00 -.685E+03   -.163E+01 -.711E+00 0.685E+03   0.438E+00 -.252E+00 0.800E-01   0.192E-03 -.439E-04 0.143E-02
   0.665E+00 -.104E+01 -.670E+03   -.580E+00 0.101E+01 0.669E+03   -.908E-01 0.454E-01 0.416E+00   0.268E-03 0.237E-03 0.159E-02
   0.202E+01 -.301E-01 -.688E+03   -.202E+01 -.467E+00 0.687E+03   -.122E-02 0.506E+00 0.942E-01   -.320E-03 0.232E-03 0.155E-02
   -.233E+01 -.159E+01 -.667E+03   0.226E+01 0.156E+01 0.667E+03   0.769E-01 0.288E-01 0.410E+00   0.527E-04 -.173E-03 0.158E-02
   -.120E+01 0.232E+00 -.669E+03   0.123E+01 -.214E+00 0.669E+03   -.334E-01 -.140E-01 0.502E+00   -.909E-04 -.296E-03 0.156E-02
   0.164E+01 -.130E+01 -.669E+03   -.167E+01 0.131E+01 0.668E+03   0.247E-01 -.143E-01 0.512E+00   -.420E-03 -.217E-03 0.173E-02
   -.267E+00 0.165E+01 -.670E+03   0.264E+00 -.156E+01 0.669E+03   0.210E-02 -.923E-01 0.409E+00   0.510E-03 -.217E-03 0.166E-02
   -.377E+01 0.240E+01 -.219E+04   0.376E+01 -.238E+01 0.219E+04   0.111E-01 -.152E-01 0.111E+01   -.243E-03 -.201E-03 0.948E-03
   0.195E+02 0.310E+02 -.216E+04   -.196E+02 -.310E+02 0.216E+04   0.118E+00 0.597E-01 0.118E+01   -.774E-04 -.146E-03 0.107E-02
   -.159E+02 0.427E+02 -.215E+04   0.159E+02 -.427E+02 0.215E+04   -.826E-01 0.344E-01 0.113E+01   0.320E-03 -.356E-03 0.854E-03
   0.327E+02 0.988E-01 -.216E+04   -.328E+02 -.119E+00 0.216E+04   0.108E+00 0.201E-01 0.117E+01   -.112E-03 0.254E-03 0.885E-03
   0.166E+02 0.231E+01 -.208E+04   -.166E+02 -.235E+01 0.208E+04   -.626E-02 0.519E-01 -.494E+01   -.589E-04 0.224E-03 0.637E-03
   -.487E+02 0.282E+01 -.213E+04   0.488E+02 -.287E+01 0.213E+04   -.139E+00 0.601E-01 0.133E+01   0.171E-03 -.556E-04 0.895E-03
   0.233E+02 -.324E+02 -.216E+04   -.233E+02 0.325E+02 0.216E+04   0.983E-02 -.122E+00 0.115E+01   -.880E-04 0.202E-03 0.688E-03
   -.164E+02 -.443E+02 -.214E+04   0.163E+02 0.444E+02 0.214E+04   0.504E-01 -.136E+00 0.116E+01   -.211E-03 0.926E-04 0.906E-03
   -.707E+01 -.393E+01 -.219E+04   0.708E+01 0.397E+01 0.218E+04   -.937E-02 -.402E-01 0.109E+01   0.299E-03 -.466E-04 0.883E-03
   0.607E+02 0.173E+02 -.946E+03   -.610E+02 -.174E+02 0.948E+03   0.276E+00 0.102E+00 -.142E+01   -.128E-04 0.259E-04 -.179E-03
   -.632E+02 -.180E+02 -.897E+03   0.640E+02 0.183E+02 0.897E+03   -.742E+00 -.274E+00 0.215E+00   -.304E-04 0.266E-06 -.222E-03
   0.489E+02 -.334E+02 -.246E+03   -.531E+02 0.369E+02 0.247E+03   0.419E+01 -.351E+01 -.118E+01   -.176E-05 0.747E-05 -.593E-04
   0.235E+02 0.544E+02 -.245E+03   -.252E+02 -.596E+02 0.246E+03   0.168E+01 0.522E+01 -.110E+01   0.551E-06 0.499E-05 -.494E-04
   0.103E+01 0.258E+01 -.227E+03   -.180E+01 -.301E+01 0.232E+03   0.762E+00 0.433E+00 -.526E+01   -.679E-05 -.667E-06 -.382E-04
   -.493E+02 0.325E+02 -.218E+03   0.535E+02 -.358E+02 0.217E+03   -.419E+01 0.333E+01 0.127E+01   -.406E-05 -.738E-06 -.574E-04
   -.232E+02 -.548E+02 -.218E+03   0.248E+02 0.600E+02 0.217E+03   -.163E+01 -.519E+01 0.982E+00   -.716E-05 -.266E-06 -.595E-04
   -.354E+00 -.138E+00 0.127E+02   0.355E-14 -.213E-13 -.173E-11   0.339E+00 0.292E+00 -.128E+02   -.678E-04 0.269E-04 0.236E-01

 POSITION                                       TOTAL-FORCE (eV/Angst)
      0.00000      0.00000      7.50000         0.004100     -0.003824     -0.118661
      2.80721      0.00000      7.50000        -0.013900     -0.007062     -0.055128
      5.61443      0.00000      7.50000         0.013862     -0.006393     -0.049957
      1.40361      2.43112      7.50000        -0.005832     -0.020609     -0.054051
      4.21082      2.43112      7.50000         0.000841     -0.007054     -0.054675
      7.01803      2.43112      7.50000         0.008220     -0.019078     -0.052809
      2.80721      4.86224      7.50000         0.008767      0.002871     -0.051809
      5.61443      4.86224      7.50000        -0.005749      0.003037     -0.052243
      8.42164      4.86224      7.50000         0.001309     -0.008242     -0.047565
      1.40361      0.81037      9.79208        -0.015608      0.000679     -0.029811
      4.21082      0.81037      9.79208         0.003982      0.066603      0.195110
      7.01803      0.81037      9.79208         0.002525      0.003132     -0.024532
      2.80721      3.24149      9.79208         0.052662     -0.011797      0.201073
      5.61443      3.24149      9.79208        -0.052358     -0.019943      0.208160
      8.42164      3.24149      9.79208        -0.006498      0.005178      0.016184
      4.21082      5.67261      9.79208        -0.007269      0.012362     -0.019984
      7.01803      5.67261      9.79208        -0.009806      0.010196      0.021068
      9.82525      5.67261      9.79208         0.010459      0.015256      0.022272
      8.41950      1.63163     12.05042        -0.008787      0.007408     -0.001955
      2.82083      1.64013     12.08815         0.005192     -0.007492      0.000739
      5.59352      1.64186     12.09183         0.001829     -0.005813     -0.007353
      9.82560      4.06178     12.05470        -0.005300      0.003774      0.001078
      4.20848      4.04022     12.09368        -0.001108      0.005180      0.001599
      7.01287      4.06262     12.05612         0.003786     -0.001570     -0.002884
     11.22643      6.49381     12.05281        -0.003944      0.000073     -0.011849
      5.61165      6.49287     12.05173         0.001655      0.000814     -0.011442
      8.41938      6.49678     12.05552        -0.000905     -0.006232     -0.009884
      8.41330      0.02203     14.35093         0.003177     -0.002729      0.009306
      2.79532      0.01880     14.34965         0.001969      0.003595      0.005017
      5.60919      0.01952     14.35288         0.000872     -0.000473      0.000999
      9.81457      2.45300     14.34892         0.009221     -0.003391      0.000674
      4.20638      2.45070     14.60579        -0.000612      0.006630     -0.011629
      7.01473      2.45173     14.35006        -0.000963     -0.001297     -0.007430
     11.22048      4.88657     14.35256         0.003749      0.002861      0.001501
      5.60440      4.88690     14.35331         0.006907      0.000746     -0.003057
      8.41494      4.88625     14.34978         0.004038     -0.004147      0.003587
      4.10763      2.40101     16.69896        -0.011440      0.004933      0.000505
      5.38602      2.76348     17.42009        -0.003291     -0.002331     -0.013674
      3.28795      3.09408     16.93855        -0.002811     -0.001882     -0.003218
      3.78386      1.37360     16.92108         0.004859     -0.008811     -0.003630
      5.21645      2.67039     18.50996        -0.006743     -0.002815      0.012044
      6.21977      2.09340     17.16137         0.008907     -0.015389      0.001153
      5.70118      3.79802     17.22225         0.000040      0.013045     -0.002836
    total drift:                               -0.014190      0.154370     -0.055449

  FREE ENERGIE OF THE ION-ELECTRON SYSTEM (eV)
  free  energy   TOTEN  =      -246.09412720 eV

  energy  without entropy=     -243.94656765  energy(sigma->0) =     -245.02034743

 stress matrix after NEB project (eV)
    -37.03611      0.04785      0.08408
      0.04785    -36.82005     -0.21120
      0.08408     -0.21120     -0.61122
  FORCES: max atom, RMS     0.017818    0.007832
  FORCE total and by dimension    0.051357    0.015389
  Stress total and by dimension   52.229024   37.036112